20 21 22
21 20 21
15 11 16
11 15 13
13 14 11
14 13 11
21 14 9
14 21 8
2 3 7
3 2 7
21 15 6
15 21 6
11 2 5
2 15 5
12 2 4
14 11 4
11 14 4
11 21 4
12 14 4
21 25 4
2 4 3
3 9 3
12 13 3
14 15 3
15 14 3
15 2 3
2 12 3
14 12 3
21 18 3
4 2 2
6 7 2
7 4 2
4 7 2
7 6 2
8 3 2
2 8 2
13 15 2
15 13 2
2 11 2
14 2 2
2 14 2
18 15 2
22 11 2
15 27 2
27 15 2
13 12 2
12 21 2
21 12 2
25 21 2
25 15 2
18 21 2
21 11 2
1 2 1
4 5 1
5 2 1
2 5 1
5 6 1
6 2 1
2 7 1
6 5 1
5 8 1
8 2 1
9 5 1
5 3 1
9 3 1
9 10 1
10 9 1
9 2 1
2 9 1
9 6 1
7 2 1
3 7 1
7 11 1
11 12 1
14 16 1
16 12 1
2 13 1
13 11 1
2 17 1
17 11 1
11 17 1
17 14 1
14 18 1
18 2 1
2 19 1
19 20 1
14 22 1
22 23 1
23 14 1
14 23 1
23 13 1
13 24 1
24 11 1
20 11 1
11 18 1
15 20 1
20 25 1
25 2 1
2 25 1
25 12 1
14 3 1
2 22 1
15 26 1
26 14 1
13 2 1
3 13 1
13 21 1
21 22 1
15 28 1
28 29 1
29 28 1
28 12 1
12 29 1
29 12 1
12 30 1
30 31 1
31 32 1
32 15 1
15 12 1
12 33 1
33 12 1
12 34 1
34 21 1
11 25 1
25 35 1
35 36 1
36 14 1
14 25 1
25 14 1
11 36 1
36 21 1
14 37 1
37 38 1
38 11 1
18 20 1
21 39 1
39 21 1
21 10 1
10 21 1
21 40 1
40 41 1
41 18 1
21 42 1
42 21 1
11 20 1
