4 5 26
5 4 22
4 1 21
5 1 20
1 4 18
9 4 17
1 5 15
9 5 15
17 5 14
7 5 12
5 9 12
5 17 12
4 9 12
5 7 11
9 7 11
20 4 10
4 20 10
7 9 9
1 7 9
1 9 8
9 8 8
7 1 8
8 9 7
10 11 7
15 16 7
8 5 7
16 15 6
20 5 6
1 17 6
3 1 5
1 3 5
7 8 5
11 4 5
14 1 5
8 7 5
17 4 5
21 20 5
7 4 5
4 17 5
20 28 5
28 20 5
3 5 4
5 3 4
6 1 4
11 5 4
11 10 4
1 14 4
5 8 4
5 16 4
5 19 4
19 17 4
17 19 4
4 19 4
20 21 4
5 20 4
17 1 4
3 4 3
4 3 3
1 6 3
13 12 3
4 11 3
15 9 3
19 4 3
19 20 3
4 7 3
8 25 3
27 9 3
5 11 3
17 7 3
33 34 3
34 1 3
12 13 2
5 10 2
10 13 2
12 10 2
13 10 2
8 4 2
4 8 2
19 9 2
25 8 2
26 5 2
9 27 2
4 14 2
14 5 2
1 20 2
9 1 2
4 15 2
11 1 2
1 12 2
16 8 2
8 16 2
1 33 2
1 2 1
2 3 1
3 6 1
9 10 1
5 12 1
12 11 1
10 5 1
5 14 1
9 15 1
9 16 1
16 5 1
5 15 1
16 7 1
15 17 1
7 18 1
18 5 1
4 21 1
21 19 1
19 21 1
20 22 1
22 19 1
19 5 1
9 19 1
19 8 1
19 7 1
7 23 1
23 24 1
24 8 1
25 26 1
5 26 1
5 27 1
15 4 1
7 14 1
14 4 1
14 9 1
8 14 1
14 8 1
20 9 1
5 21 1
21 4 1
16 1 1
1 15 1
16 10 1
5 13 1
10 7 1
7 10 1
10 9 1
10 1 1
1 10 1
7 11 1
1 11 1
11 9 1
10 4 1
9 20 1
20 15 1
15 20 1
20 16 1
16 20 1
20 11 1
20 1 1
17 29 1
29 8 1
8 15 1
16 17 1
7 17 1
5 18 1
18 1 1
20 19 1
16 30 1
30 15 1
15 8 1
8 17 1
12 31 1
31 5 1
5 31 1
31 14 1
11 8 1
8 32 1
32 33 1
1 8 1
