13 3 17
3 13 16
3 5 14
3 7 14
4 7 12
1 3 11
7 4 11
7 6 11
7 3 11
3 1 10
4 12 10
12 4 10
4 3 9
5 3 9
6 4 9
15 3 9
6 3 8
3 15 8
3 4 7
9 10 7
10 9 7
10 21 7
21 10 6
7 5 5
4 5 5
3 6 5
5 6 4
5 4 4
6 7 4
5 7 4
4 6 4
1 7 3
12 3 3
6 5 2
5 1 2
10 11 2
11 10 2
11 9 2
9 11 2
6 12 2
3 12 2
9 22 2
1 2 1
2 1 1
3 2 1
2 3 1
5 8 1
8 1 1
1 6 1
6 1 1
4 1 1
1 4 1
3 9 1
9 4 1
12 10 1
10 3 1
5 13 1
3 14 1
14 3 1
3 16 1
16 15 1
3 17 1
17 7 1
12 6 1
12 7 1
4 18 1
18 19 1
19 10 1
10 20 1
20 10 1
21 3 1
7 12 1
5 12 1
4 9 1
22 9 1
