2 14 187
14 2 175
2 10 62
10 2 62
5 2 55
2 5 53
4 2 28
2 4 24
14 11 17
10 11 15
11 14 15
2 6 13
2 12 13
6 2 12
11 10 12
12 2 12
5 14 11
2 9 10
9 2 10
14 10 10
22 2 10
14 5 9
2 22 8
11 2 7
14 4 7
14 6 7
10 14 6
6 14 6
2 33 6
33 2 6
14 12 5
12 14 5
21 2 5
2 21 5
4 5 4
12 5 4
10 22 4
2 7 3
7 2 3
5 12 3
6 5 3
20 2 3
4 14 3
2 23 3
22 10 3
14 22 3
14 29 3
2 3 2
3 2 2
5 4 2
8 2 2
2 11 2
2 17 2
17 14 2
14 17 2
17 2 2
5 6 2
2 19 2
19 21 2
21 20 2
10 5 2
22 5 2
4 12 2
12 4 2
23 22 2
22 14 2
6 10 2
14 28 2
28 14 2
2 28 2
28 2 2
29 14 2
1 2 1
2 8 1
10 13 1
13 2 1
5 8 1
2 15 1
15 12 1
12 16 1
16 2 1
14 18 1
18 2 1
19 20 1
2 20 1
21 19 1
20 21 1
5 10 1
5 22 1
23 2 1
10 24 1
24 2 1
2 25 1
25 10 1
2 26 1
26 2 1
22 6 1
6 22 1
10 6 1
14 19 1
19 14 1
2 27 1
27 2 1
29 30 1
30 4 1
2 29 1
29 10 1
29 4 1
4 22 1
22 4 1
4 10 1
22 29 1
29 31 1
31 29 1
29 32 1
32 6 1
6 29 1
10 4 1
