34 3 30
3 34 30
10 1 24
1 10 23
6 3 12
3 6 10
5 6 9
5 3 9
34 42 9
21 9 8
42 34 8
6 5 7
3 5 7
9 21 6
46 47 6
1 9 5
1 21 5
6 34 5
37 21 5
47 46 5
9 1 4
15 9 4
18 1 4
21 1 4
9 37 4
37 9 4
21 37 4
7 3 3
1 18 3
9 6 3
22 6 3
6 22 3
21 14 3
9 3 3
34 6 3
39 40 3
40 37 3
22 34 3
45 34 3
34 45 3
34 52 3
52 34 3
2 3 2
3 2 2
6 7 2
3 7 2
1 6 2
1 14 2
9 15 2
6 19 2
14 18 2
22 3 2
14 21 2
40 39 2
34 5 2
34 37 2
37 40 2
42 3 2
51 34 2
34 51 2
1 2 1
2 4 1
4 5 1
7 6 1
3 8 1
8 1 1
10 3 1
3 11 1
11 12 1
12 6 1
6 12 1
12 10 1
6 13 1
13 6 1
6 1 1
14 1 1
1 15 1
9 16 1
16 1 1
1 17 1
17 18 1
18 5 1
19 6 1
3 18 1
18 14 1
14 20 1
20 14 1
18 10 1
19 22 1
22 23 1
23 1 1
3 24 1
24 14 1
14 25 1
25 9 1
9 20 1
20 26 1
26 14 1
14 26 1
26 18 1
18 6 1
5 27 1
27 28 1
28 29 1
29 30 1
30 6 1
6 31 1
31 30 1
30 31 1
31 6 1
3 1 1
6 32 1
32 5 1
3 33 1
33 22 1
22 5 1
5 22 1
34 21 1
3 15 1
15 35 1
35 15 1
3 36 1
36 6 1
3 9 1
9 38 1
38 39 1
37 39 1
39 37 1
3 41 1
41 34 1
5 34 1
37 22 1
37 34 1
6 42 1
3 42 1
42 9 1
14 9 1
9 14 1
14 43 1
43 21 1
21 44 1
44 21 1
21 45 1
45 46 1
47 5 1
6 48 1
48 49 1
49 50 1
50 51 1
51 22 1
22 50 1
50 22 1
3 22 1
34 22 1
52 53 1
53 52 1
52 3 1
3 52 1
34 9 1
3 54 1
54 3 1
