8 11 24
11 8 24
8 9 21
9 8 17
4 5 15
8 5 15
5 4 14
5 8 13
4 8 13
5 29 13
8 4 12
29 5 12
4 11 10
11 4 9
5 11 7
11 5 6
5 1 4
5 28 4
1 5 4
8 14 3
14 8 3
8 1 3
9 11 3
28 5 3
29 11 3
11 29 3
5 49 3
10 5 2
4 9 2
11 14 2
9 14 2
8 28 2
14 11 2
8 45 2
49 5 2
1 2 1
2 3 1
3 4 1
4 6 1
6 5 1
5 7 1
7 4 1
9 10 1
5 10 1
11 12 1
12 9 1
9 4 1
9 13 1
13 8 1
11 15 1
15 16 1
16 5 1
11 17 1
17 11 1
14 17 1
17 9 1
14 9 1
1 8 1
9 18 1
18 4 1
11 19 1
19 5 1
5 19 1
19 20 1
20 21 1
21 8 1
8 22 1
22 8 1
1 23 1
23 8 1
11 24 1
24 25 1
25 26 1
26 1 1
1 13 1
13 5 1
1 27 1
27 8 1
29 30 1
30 8 1
28 8 1
8 31 1
31 5 1
11 32 1
32 11 1
11 33 1
33 34 1
34 11 1
28 35 1
35 1 1
1 36 1
36 5 1
5 37 1
37 5 1
1 4 1
4 29 1
5 38 1
38 8 1
11 39 1
39 8 1
8 40 1
40 8 1
11 41 1
41 11 1
5 42 1
42 5 1
29 43 1
43 4 1
4 44 1
44 4 1
45 8 1
45 4 1
4 45 1
45 46 1
46 45 1
45 47 1
47 1 1
28 4 1
5 48 1
48 8 1
49 8 1
9 50 1
50 9 1
11 1 1
1 11 1
5 51 1
51 8 1
