6 4 28
5 4 25
4 5 24
4 6 23
7 15 22
15 7 20
7 6 16
6 14 16
12 6 15
14 6 14
6 12 13
6 7 11
14 8 10
8 7 9
4 7 8
4 12 8
8 14 8
7 4 7
4 16 7
13 4 6
16 4 6
11 10 5
4 13 5
21 14 5
6 8 4
7 8 4
4 8 4
10 11 4
21 8 4
14 21 4
2 3 3
3 2 3
8 4 3
4 9 3
8 21 3
6 23 3
12 4 3
6 11 3
8 6 2
10 6 2
4 21 2
23 6 2
9 4 2
11 6 2
7 28 2
28 7 2
1 2 1
2 4 1
5 6 1
9 10 1
10 9 1
9 11 1
8 13 1
14 15 1
15 16 1
4 17 1
17 4 1
16 18 1
18 16 1
16 19 1
19 7 1
15 20 1
20 15 1
15 18 1
18 6 1
8 22 1
22 4 1
23 4 1
4 24 1
24 6 1
16 6 1
12 25 1
25 7 1
6 9 1
9 6 1
11 26 1
26 10 1
15 27 1
27 7 1
6 29 1
29 14 1
6 5 1
5 30 1
30 5 1
5 31 1
31 32 1
32 5 1
14 7 1
7 31 1
31 5 1
4 33 1
33 4 1
14 4 1
7 14 1
12 11 1
11 4 1
12 14 1
14 34 1
34 8 1
7 35 1
35 8 1
