3 2 36
2 3 35
2 37 26
37 2 24
4 2 18
40 2 18
2 40 18
2 4 15
2 28 11
28 2 11
2 52 8
2 23 7
52 2 7
23 2 6
3 4 4
12 3 4
2 12 4
12 2 4
4 23 3
23 4 3
4 3 2
11 3 2
11 12 2
3 16 2
36 2 2
37 38 2
38 37 2
43 2 2
2 43 2
1 2 1
2 5 1
5 3 1
2 6 1
6 3 1
4 7 1
7 4 1
3 8 1
8 3 1
3 9 1
9 10 1
10 4 1
4 11 1
3 12 1
12 13 1
13 12 1
3 14 1
14 15 1
15 11 1
12 11 1
3 11 1
16 3 1
3 10 1
10 17 1
17 3 1
16 17 1
17 18 1
18 3 1
3 19 1
19 20 1
20 21 1
21 10 1
10 3 1
3 22 1
22 4 1
4 24 1
24 25 1
25 26 1
26 27 1
27 4 1
23 29 1
29 2 1
2 30 1
30 12 1
12 31 1
31 14 1
14 12 1
12 9 1
9 32 1
32 14 1
14 32 1
32 33 1
33 34 1
34 2 1
2 33 1
33 12 1
3 35 1
35 2 1
2 35 1
35 36 1
2 36 1
37 3 1
37 39 1
39 23 1
23 37 1
37 40 1
40 41 1
41 40 1
2 42 1
42 43 1
43 24 1
24 44 1
44 43 1
2 45 1
45 2 1
12 46 1
46 2 1
43 4 1
4 43 1
2 47 1
47 2 1
43 23 1
23 40 1
40 48 1
48 40 1
40 49 1
49 50 1
50 12 1
2 51 1
51 2 1
52 53 1
53 54 1
54 55 1
55 56 1
56 57 1
57 58 1
58 59 1
59 60 1
60 61 1
61 2 1
40 62 1
62 52 1
52 63 1
63 12 1
40 64 1
64 40 1
40 65 1
65 40 1
40 66 1
66 67 1
67 40 1
40 52 1
52 40 1
