3 14 66
14 3 64
3 31 42
31 3 39
18 3 21
3 18 17
3 28 16
28 3 15
17 3 14
3 17 13
14 17 11
21 3 10
3 20 9
17 14 8
3 21 8
16 3 7
25 3 7
3 4 6
7 3 6
3 7 6
20 3 6
3 25 6
3 16 5
33 3 5
31 14 5
4 3 4
3 33 4
17 18 4
8 3 3
3 15 3
21 16 3
16 18 3
26 25 3
21 18 3
14 31 3
18 21 3
18 14 3
18 17 3
17 31 3
1 3 2
3 8 2
13 3 2
20 21 2
15 21 2
15 3 2
3 30 2
30 3 2
25 26 2
31 17 2
14 18 2
1 2 1
2 1 1
4 1 1
4 5 1
5 4 1
4 6 1
6 7 1
7 8 1
3 9 1
9 3 1
3 10 1
10 11 1
11 12 1
12 13 1
3 13 1
15 14 1
16 17 1
17 15 1
15 18 1
3 19 1
19 20 1
18 22 1
22 18 1
18 23 1
23 18 1
20 18 1
17 19 1
19 17 1
3 24 1
24 25 1
3 26 1
25 27 1
27 18 1
18 15 1
21 29 1
29 3 1
28 16 1
16 31 1
3 32 1
32 3 1
31 18 1
18 20 1
20 16 1
16 21 1
18 16 1
31 33 1
3 34 1
34 3 1
31 15 1
15 26 1
26 35 1
35 26 1
26 15 1
14 21 1
20 31 1
31 16 1
3 36 1
36 16 1
3 37 1
37 3 1
17 30 1
30 17 1
14 38 1
38 3 1
14 39 1
