15 17 39
4 12 37
17 15 35
12 4 33
7 44 22
44 7 19
7 13 16
17 21 15
13 7 14
12 19 14
12 8 14
8 12 12
21 17 12
16 17 10
17 16 10
19 12 10
13 14 9
14 13 9
19 4 9
21 15 9
4 6 8
15 21 8
17 44 8
44 17 8
6 4 7
4 19 7
17 28 7
44 41 7
7 15 7
15 7 7
2 7 6
18 4 6
4 18 6
28 17 6
17 7 6
41 44 6
7 17 6
7 2 5
5 2 5
17 5 5
2 13 5
8 17 5
44 15 5
2 5 4
15 5 4
5 15 4
5 17 4
19 20 4
13 2 4
12 34 4
17 8 4
44 45 4
45 44 4
8 57 4
57 8 4
8 9 3
9 8 3
8 4 3
15 16 3
18 19 3
20 19 3
15 19 3
28 15 3
19 8 3
34 12 3
34 35 3
8 34 3
34 8 3
37 38 3
20 12 3
12 20 3
34 41 3
41 34 3
41 35 3
35 41 3
15 8 3
8 7 3
8 44 3
34 17 3
44 57 3
19 7 3
4 5 2
5 4 2
3 5 2
5 3 2
16 15 2
20 4 2
19 6 2
13 12 2
12 24 2
12 26 2
26 12 2
4 8 2
15 28 2
15 2 2
35 12 2
35 34 2
38 37 2
7 40 2
13 40 2
40 7 2
35 8 2
16 8 2
8 15 2
44 13 2
13 44 2
47 44 2
45 7 2
44 12 2
17 34 2
15 44 2
24 44 2
57 44 2
7 19 2
1 2 1
2 3 1
3 4 1
5 7 1
7 3 1
3 8 1
9 10 1
10 9 1
8 11 1
11 8 1
12 6 1
6 12 1
12 5 1
13 15 1
6 18 1
19 18 1
4 20 1
20 18 1
4 21 1
21 22 1
22 15 1
6 19 1
6 23 1
23 4 1
12 2 1
19 13 1
7 12 1
24 25 1
25 24 1
24 12 1
24 4 1
21 13 1
13 27 1
27 15 1
7 29 1
29 7 1
8 30 1
30 31 1
31 17 1
15 32 1
32 17 1
17 33 1
33 32 1
32 15 1
2 15 1
2 21 1
21 5 1
5 12 1
12 35 1
12 36 1
36 35 1
34 4 1
4 34 1
35 36 1
36 12 1
8 37 1
38 39 1
39 37 1
37 7 1
40 13 1
7 20 1
12 21 1
21 4 1
4 16 1
8 42 1
42 35 1
8 16 1
8 43 1
43 35 1
44 46 1
46 44 1
44 34 1
44 21 1
41 47 1
44 47 1
44 48 1
48 44 1
40 44 1
44 49 1
49 50 1
50 7 1
7 45 1
17 45 1
21 51 1
51 52 1
52 15 1
17 12 1
12 50 1
50 19 1
4 7 1
7 53 1
53 7 1
21 44 1
44 54 1
54 44 1
44 55 1
55 44 1
12 15 1
34 15 1
15 34 1
15 56 1
56 44 1
7 24 1
44 24 1
44 26 1
26 8 1
44 8 1
57 58 1
58 59 1
59 8 1
12 57 1
57 12 1
8 60 1
60 12 1
16 44 1
19 15 1
7 18 1
18 44 1
44 18 1
18 15 1
15 18 1
