3 14 50
14 3 49
3 23 41
23 3 41
12 3 18
3 12 16
11 3 15
18 3 15
3 18 15
14 12 14
14 15 14
15 14 13
3 11 13
3 24 12
24 3 10
12 14 9
13 14 8
11 15 8
14 18 7
26 3 7
3 13 6
18 14 6
3 26 6
15 3 6
15 11 6
13 3 5
11 14 5
23 24 5
24 23 5
3 15 5
3 8 4
12 13 4
18 11 4
25 3 4
3 25 4
14 23 4
3 5 3
5 3 3
14 13 3
24 25 3
25 23 3
24 14 3
14 11 3
12 18 3
23 14 3
18 12 3
39 11 3
13 12 2
16 13 2
12 11 2
11 17 2
17 11 2
8 14 2
23 25 2
26 23 2
23 26 2
14 24 2
11 25 2
11 18 2
11 24 2
8 11 2
36 3 2
8 36 2
11 39 2
1 2 1
2 3 1
3 4 1
4 3 1
3 6 1
6 7 1
7 8 1
8 9 1
9 8 1
8 3 1
8 10 1
10 11 1
14 16 1
13 16 1
13 6 1
6 13 1
3 19 1
19 11 1
12 8 1
14 8 1
14 20 1
20 3 1
14 21 1
21 22 1
22 18 1
23 27 1
27 3 1
3 28 1
28 3 1
3 29 1
29 3 1
3 30 1
30 31 1
31 15 1
15 30 1
30 11 1
25 14 1
25 24 1
24 11 1
15 8 1
11 8 1
8 15 1
23 32 1
32 11 1
25 11 1
11 33 1
33 11 1
25 26 1
11 34 1
34 18 1
15 26 1
26 14 1
18 35 1
35 18 1
18 13 1
3 36 1
26 12 1
23 37 1
37 23 1
14 26 1
15 13 1
13 18 1
11 12 1
11 36 1
36 38 1
38 3 1
36 8 1
8 13 1
13 39 1
39 40 1
40 11 1
15 39 1
18 36 1
36 15 1
