12 9 52
9 12 50
12 8 11
2 3 10
3 2 10
8 9 9
9 10 9
9 14 9
14 12 9
9 8 8
8 12 8
14 9 8
12 14 8
10 9 7
8 10 7
12 18 7
1 2 6
9 17 6
18 12 6
17 9 6
2 1 5
10 8 5
11 9 5
9 11 5
9 3 5
3 9 5
9 23 5
23 9 5
10 11 4
11 10 4
17 12 4
18 17 4
8 11 3
11 12 3
12 17 3
11 18 3
18 11 3
17 18 3
4 5 2
5 4 2
5 2 2
2 5 2
11 8 2
10 12 2
10 14 2
14 15 2
15 14 2
9 16 2
16 9 2
20 9 2
9 21 2
21 9 2
12 22 2
22 9 2
9 24 2
24 9 2
9 25 2
25 9 2
17 11 2
2 4 1
4 2 1
2 6 1
6 2 1
2 7 1
7 8 1
12 11 1
8 13 1
13 8 1
12 19 1
19 12 1
14 20 1
9 20 1
21 12 1
12 21 1
9 22 1
22 12 1
12 25 1
25 12 1
9 26 1
26 17 1
11 17 1
9 18 1
18 9 1
14 27 1
27 28 1
28 12 1
