11 29 166
29 11 162
10 11 144
11 10 129
29 10 70
10 29 69
32 10 34
10 32 33
3 12 19
12 3 17
11 16 10
19 20 9
11 18 9
18 10 9
10 20 9
20 10 9
11 33 9
11 19 8
33 11 8
12 22 8
19 10 7
4 3 6
16 11 6
10 18 6
18 11 6
12 11 6
11 12 6
10 19 6
28 10 6
3 4 5
3 8 5
18 19 5
19 11 5
12 4 5
20 11 5
20 19 5
32 11 5
22 12 5
8 3 4
16 10 4
20 18 4
10 12 4
4 12 4
12 10 4
10 28 4
29 32 4
11 32 4
12 37 4
37 12 4
11 20 3
11 28 3
28 29 3
40 12 3
40 3 3
3 5 2
6 3 2
3 6 2
9 3 2
10 16 2
11 4 2
4 10 2
4 11 2
11 21 2
11 22 2
22 13 2
13 10 2
24 25 2
26 10 2
10 27 2
20 29 2
29 20 2
10 30 2
29 28 2
24 28 2
28 24 2
25 10 2
30 11 2
29 27 2
27 29 2
33 10 2
37 38 2
38 12 2
38 13 2
12 13 2
13 12 2
12 40 2
3 40 2
1 2 1
2 3 1
5 4 1
5 6 1
6 7 1
7 3 1
8 9 1
3 10 1
10 3 1
3 9 1
3 13 1
13 3 1
12 9 1
9 10 1
11 14 1
14 11 1
11 15 1
15 11 1
16 17 1
17 10 1
16 18 1
19 18 1
18 20 1
21 4 1
21 10 1
10 21 1
21 11 1
10 23 1
23 10 1
11 24 1
25 26 1
27 10 1
30 10 1
10 24 1
24 26 1
26 24 1
27 25 1
11 30 1
11 25 1
25 11 1
27 11 1
11 27 1
10 26 1
20 31 1
31 20 1
10 31 1
31 11 1
32 20 1
19 28 1
28 19 1
19 29 1
10 34 1
34 35 1
35 11 1
10 33 1
19 32 1
29 33 1
33 13 1
13 36 1
36 12 1
12 38 1
22 38 1
13 38 1
13 37 1
22 3 1
10 13 1
10 39 1
39 22 1
22 11 1
22 10 1
13 22 1
22 40 1
40 38 1
38 37 1
38 40 1
11 40 1
3 36 1
36 38 1
38 10 1
29 19 1
19 38 1
38 11 1
32 29 1
