4 3 56
3 4 50
20 3 29
3 20 27
3 14 23
14 3 22
18 4 17
3 18 15
18 3 14
4 18 14
3 2 12
3 15 12
2 3 11
15 3 10
7 3 8
3 9 8
3 7 7
14 18 6
3 29 6
29 3 6
54 3 6
9 3 5
16 3 5
3 39 5
3 54 5
14 4 4
4 14 4
18 14 4
3 16 4
18 34 4
34 18 4
18 15 3
27 3 3
39 3 3
52 3 3
6 4 2
3 12 2
12 3 2
3 13 2
9 14 2
9 2 2
2 16 2
2 9 2
15 18 2
20 41 2
41 20 2
3 52 2
1 2 1
3 5 1
5 3 1
3 6 1
4 6 1
3 8 1
8 3 1
9 10 1
10 3 1
3 11 1
11 3 1
13 3 1
15 9 1
14 9 1
16 14 1
14 16 1
9 17 1
17 9 1
9 18 1
14 19 1
19 20 1
20 21 1
21 19 1
19 22 1
22 23 1
23 14 1
14 24 1
24 14 1
14 25 1
25 18 1
18 7 1
15 14 1
18 26 1
26 18 1
9 16 1
16 27 1
3 27 1
3 28 1
28 4 1
15 27 1
13 30 1
30 31 1
31 22 1
22 32 1
32 18 1
18 33 1
33 18 1
18 32 1
32 4 1
4 35 1
35 36 1
36 3 1
3 37 1
37 3 1
4 20 1
20 4 1
4 25 1
25 4 1
18 20 1
3 38 1
38 3 1
3 26 1
26 20 1
39 40 1
40 3 1
20 42 1
42 3 1
3 43 1
43 44 1
44 3 1
3 45 1
45 3 1
3 42 1
42 43 1
43 46 1
46 47 1
47 46 1
46 48 1
48 46 1
46 3 1
39 49 1
49 20 1
16 50 1
50 51 1
51 4 1
4 51 1
51 52 1
52 53 1
53 52 1
3 22 1
22 54 1
3 55 1
55 56 1
56 57 1
57 18 1
3 32 1
32 58 1
58 32 1
32 59 1
59 32 1
32 3 1
3 60 1
60 3 1
3 58 1
58 3 1
3 61 1
61 18 1
18 39 1
39 4 1
