2 53 29
53 2 28
2 21 17
2 7 16
7 2 14
21 2 14
2 11 13
32 24 13
24 21 12
2 5 11
32 2 11
5 2 10
11 2 10
12 2 10
2 12 9
2 32 9
21 24 8
24 32 8
21 32 6
14 2 5
24 2 5
2 69 5
2 14 4
19 2 4
53 67 4
69 2 4
2 24 4
2 6 3
6 2 3
8 9 3
9 8 3
24 25 3
21 27 3
2 65 3
65 2 3
67 53 3
69 10 3
10 69 3
69 71 3
75 7 3
2 4 2
4 2 2
9 2 2
7 10 2
7 9 2
8 2 2
10 2 2
11 12 2
2 15 2
15 2 2
2 17 2
23 21 2
25 24 2
20 31 2
32 29 2
2 44 2
44 2 2
63 2 2
2 64 2
2 19 2
71 2 2
71 69 2
74 2 2
2 8 2
79 2 2
85 2 2
1 2 1
2 3 1
3 2 1
7 8 1
10 7 1
8 7 1
2 13 1
13 2 1
2 16 1
16 14 1
17 2 1
17 18 1
18 19 1
2 20 1
20 2 1
2 22 1
22 23 1
25 21 1
21 23 1
21 26 1
26 21 1
27 21 1
27 2 1
27 28 1
28 2 1
21 20 1
20 24 1
24 29 1
29 30 1
30 22 1
22 20 1
31 20 1
31 32 1
29 33 1
33 32 1
29 34 1
34 32 1
2 35 1
35 36 1
36 37 1
37 38 1
38 39 1
39 2 1
2 40 1
40 41 1
41 2 1
2 42 1
42 43 1
43 2 1
2 45 1
45 46 1
46 2 1
2 47 1
47 48 1
48 2 1
2 49 1
49 2 1
2 50 1
50 51 1
51 52 1
52 2 1
2 54 1
54 53 1
53 55 1
55 54 1
54 55 1
55 2 1
53 56 1
56 54 1
54 57 1
57 2 1
2 58 1
58 53 1
2 59 1
59 60 1
60 61 1
61 59 1
59 2 1
2 62 1
62 2 1
2 61 1
61 63 1
64 2 1
64 65 1
65 63 1
2 66 1
66 2 1
67 24 1
5 19 1
2 68 1
68 10 1
2 70 1
70 69 1
69 72 1
72 19 1
19 73 1
73 69 1
2 71 1
69 73 1
73 71 1
71 24 1
2 74 1
2 75 1
2 9 1
9 7 1
7 76 1
76 7 1
7 77 1
77 7 1
7 78 1
78 2 1
24 79 1
79 24 1
21 79 1
12 75 1
7 11 1
11 80 1
80 2 1
11 75 1
7 12 1
12 74 1
2 81 1
81 2 1
2 79 1
2 82 1
82 83 1
83 84 1
84 85 1
2 85 1
24 86 1
86 21 1
