118 35 27
35 118 25
35 37 19
37 35 15
126 118 15
22 10 15
10 22 15
10 12 13
37 98 13
98 37 13
12 10 12
118 126 12
25 10 10
17 10 9
10 17 9
37 22 9
22 37 9
126 37 9
118 37 9
37 118 8
37 126 8
12 37 7
37 12 7
48 35 5
10 25 5
35 48 4
10 62 4
37 189 4
118 229 4
229 118 4
10 35 3
10 55 3
35 71 3
81 17 3
44 35 3
35 12 3
189 37 3
36 37 2
35 10 2
35 53 2
57 35 2
12 35 2
62 35 2
71 35 2
35 76 2
17 25 2
76 35 2
61 102 2
102 10 2
81 10 2
118 124 2
124 118 2
129 118 2
118 129 2
37 131 2
131 37 2
10 143 2
143 10 2
17 22 2
10 150 2
37 62 2
12 57 2
37 44 2
37 208 2
10 37 2
237 238 2
238 237 2
35 208 2
1 2 1
2 3 1
3 4 1
4 5 1
5 6 1
6 7 1
7 8 1
8 9 1
9 10 1
10 11 1
11 12 1
12 13 1
13 14 1
14 15 1
15 16 1
16 17 1
17 18 1
18 19 1
19 20 1
20 21 1
21 22 1
22 23 1
23 24 1
24 25 1
25 26 1
26 27 1
27 28 1
28 29 1
29 30 1
30 31 1
31 32 1
32 33 1
33 34 1
34 35 1
35 36 1
37 38 1
38 37 1
37 39 1
39 37 1
37 40 1
40 41 1
41 37 1
37 42 1
42 37 1
37 43 1
43 44 1
44 10 1
10 44 1
44 45 1
45 44 1
44 46 1
46 47 1
47 48 1
48 49 1
49 35 1
35 50 1
50 48 1
35 51 1
51 52 1
52 35 1
53 35 1
53 10 1
10 54 1
54 53 1
53 47 1
47 17 1
17 44 1
44 25 1
55 10 1
55 35 1
35 56 1
56 57 1
35 58 1
58 57 1
57 10 1
35 59 1
59 53 1
53 60 1
60 53 1
53 61 1
61 53 1
53 62 1
62 63 1
63 64 1
64 53 1
53 51 1
51 53 1
53 65 1
65 66 1
66 53 1
53 67 1
67 10 1
55 68 1
68 69 1
69 70 1
70 71 1
71 62 1
35 72 1
72 73 1
73 74 1
74 75 1
75 35 1
76 37 1
35 77 1
77 78 1
78 35 1
35 79 1
79 17 1
17 80 1
80 17 1
17 62 1
62 81 1
62 37 1
37 82 1
82 76 1
35 83 1
83 84 1
84 85 1
85 76 1
35 86 1
86 87 1
87 88 1
88 35 1
35 54 1
54 76 1
76 89 1
89 35 1
76 84 1
84 90 1
90 91 1
91 92 1
92 76 1
76 93 1
93 84 1
84 94 1
94 95 1
95 12 1
37 96 1
96 97 1
97 35 1
37 99 1
99 37 1
35 62 1
62 100 1
100 101 1
101 61 1
102 53 1
53 103 1
103 98 1
37 76 1
76 104 1
104 98 1
98 35 1
35 57 1
57 61 1
10 105 1
105 106 1
106 35 1
71 44 1
35 107 1
107 108 1
108 57 1
35 102 1
102 35 1
35 109 1
109 35 1
35 81 1
10 110 1
110 10 1
10 111 1
111 10 1
10 112 1
112 62 1
62 113 1
113 114 1
114 102 1
10 115 1
115 12 1
10 116 1
116 10 1
10 117 1
117 12 1
12 118 1
118 119 1
119 118 1
118 120 1
120 118 1
118 121 1
121 118 1
118 122 1
122 123 1
123 118 1
118 125 1
125 118 1
118 127 1
127 118 1
118 98 1
98 128 1
128 129 1
129 98 1
98 118 1
118 130 1
130 118 1
118 60 1
60 37 1
37 132 1
132 37 1
37 133 1
133 37 1
98 134 1
134 37 1
37 135 1
135 118 1
35 136 1
136 118 1
118 137 1
137 118 1
35 138 1
138 37 1
37 139 1
139 37 1
37 140 1
140 141 1
141 10 1
25 142 1
142 17 1
17 143 1
143 144 1
144 10 1
10 145 1
145 10 1
10 146 1
146 22 1
22 147 1
147 136 1
136 12 1
12 107 1
107 12 1
12 148 1
148 149 1
149 25 1
150 65 1
65 10 1
150 10 1
22 151 1
151 152 1
152 153 1
153 98 1
98 10 1
10 98 1
98 25 1
10 75 1
75 25 1
10 154 1
154 155 1
155 80 1
80 72 1
72 62 1
62 98 1
98 156 1
156 98 1
98 129 1
129 156 1
156 37 1
62 118 1
118 61 1
61 157 1
157 37 1
118 158 1
158 159 1
159 160 1
160 81 1
10 161 1
161 10 1
10 162 1
162 17 1
62 163 1
163 12 1
57 164 1
164 10 1
57 12 1
10 102 1
102 12 1
12 165 1
165 12 1
12 166 1
166 61 1
61 62 1
62 61 1
61 126 1
126 167 1
167 168 1
168 169 1
169 126 1
126 156 1
156 126 1
37 170 1
170 126 1
126 171 1
171 126 1
126 172 1
172 126 1
126 173 1
173 37 1
37 127 1
127 126 1
118 62 1
62 174 1
174 25 1
25 57 1
57 81 1
10 80 1
80 175 1
175 176 1
176 177 1
177 178 1
178 62 1
62 80 1
80 10 1
10 179 1
179 180 1
180 81 1
17 181 1
181 180 1
180 182 1
182 17 1
10 183 1
183 10 1
12 184 1
184 10 1
62 10 1
62 185 1
185 37 1
37 186 1
186 187 1
187 126 1
126 188 1
188 126 1
37 190 1
190 136 1
136 35 1
37 191 1
191 192 1
192 35 1
37 193 1
193 37 1
35 194 1
194 37 1
37 195 1
195 37 1
37 36 1
189 35 1
37 196 1
196 189 1
189 197 1
197 189 1
189 198 1
198 199 1
199 200 1
200 201 1
201 199 1
199 202 1
202 22 1
22 203 1
203 204 1
204 205 1
205 198 1
198 10 1
37 206 1
206 207 1
207 208 1
208 207 1
207 209 1
209 37 1
37 210 1
210 37 1
208 211 1
211 65 1
65 37 1
12 212 1
212 213 1
213 37 1
37 214 1
214 37 1
35 215 1
215 56 1
56 118 1
118 89 1
89 118 1
118 216 1
216 118 1
118 57 1
57 118 1
118 217 1
217 218 1
218 118 1
118 218 1
218 197 1
197 126 1
126 219 1
219 220 1
220 221 1
221 126 1
37 222 1
222 118 1
118 223 1
223 126 1
126 224 1
224 126 1
126 199 1
199 223 1
223 225 1
225 226 1
226 227 1
227 118 1
118 228 1
228 118 1
118 230 1
230 231 1
231 232 1
232 233 1
233 234 1
234 232 1
232 235 1
235 10 1
208 37 1
37 10 1
22 208 1
208 10 1
10 61 1
61 236 1
236 10 1
37 65 1
65 237 1
237 239 1
239 237 1
237 240 1
240 238 1
238 241 1
241 56 1
56 242 1
242 35 1
208 243 1
243 244 1
244 35 1
208 35 1
12 245 1
245 12 1
12 246 1
246 89 1
89 247 1
247 35 1
12 248 1
248 10 1
