2 7 41
7 2 39
18 9 16
9 18 14
8 9 13
9 8 12
1 2 10
2 1 9
4 11 9
11 4 8
2 8 7
8 2 5
9 12 5
9 4 5
4 9 5
1 4 5
18 8 5
25 8 5
12 9 4
2 15 4
8 18 4
8 25 4
4 1 3
7 1 3
15 2 3
8 1 3
3 4 2
7 8 2
11 9 2
15 7 2
2 10 2
4 8 2
8 4 2
1 8 2
4 2 2
23 2 2
7 23 2
2 24 2
25 18 2
28 4 2
1 3 1
1 5 1
5 6 1
6 2 1
9 10 1
10 3 1
3 2 1
9 11 1
12 3 1
4 3 1
3 1 1
2 13 1
13 2 1
1 14 1
14 4 1
9 1 1
1 15 1
15 3 1
3 15 1
10 2 1
10 16 1
16 2 1
4 15 1
15 4 1
4 7 1
8 17 1
17 8 1
8 15 1
15 18 1
9 7 1
7 19 1
19 18 1
4 18 1
18 2 1
8 20 1
20 9 1
9 21 1
21 4 1
4 22 1
22 7 1
2 23 1
23 1 1
1 7 1
24 17 1
17 25 1
8 26 1
26 27 1
27 9 1
18 25 1
8 28 1
24 18 1
9 28 1
4 24 1
24 28 1
28 29 1
29 30 1
30 28 1
28 31 1
31 2 1
2 32 1
32 24 1
24 25 1
18 1 1
1 13 1
