14 9 22
4 9 20
23 4 20
9 14 19
4 23 18
36 9 16
9 4 15
9 36 14
16 27 9
27 16 9
9 15 8
27 9 8
9 27 8
27 26 7
31 33 7
15 36 7
9 23 6
25 9 6
26 27 6
33 31 6
9 25 5
26 16 5
36 15 5
16 22 4
23 9 4
15 14 3
16 26 3
9 2 2
14 4 2
21 16 2
22 16 2
22 9 2
23 14 2
26 29 2
29 30 2
30 26 2
32 31 2
33 34 2
34 33 2
31 34 2
34 31 2
33 9 2
15 9 2
9 21 2
1 2 1
2 3 1
3 4 1
4 5 1
5 6 1
6 4 1
4 7 1
7 8 1
8 9 1
9 10 1
10 4 1
2 9 1
2 11 1
11 2 1
2 12 1
12 4 1
4 13 1
13 9 1
9 16 1
16 4 1
4 17 1
17 9 1
9 18 1
18 19 1
19 4 1
9 20 1
20 21 1
4 14 1
9 24 1
24 14 1
14 25 1
9 26 1
27 28 1
28 26 1
30 29 1
26 30 1
29 26 1
26 4 1
4 26 1
26 23 1
4 31 1
31 32 1
33 32 1
9 33 1
33 22 1
22 33 1
31 16 1
16 31 1
31 35 1
35 27 1
27 33 1
33 27 1
14 36 1
14 15 1
36 14 1
16 9 1
36 23 1
4 22 1
15 4 1
16 36 1
15 16 1
22 4 1
9 37 1
37 23 1
21 37 1
37 36 1
36 38 1
38 35 1
35 38 1
38 27 1
16 33 1
23 36 1
