12 6 24
6 12 21
6 2 16
2 6 16
2 21 15
6 17 13
21 2 13
17 6 12
12 32 12
32 12 11
2 15 7
2 13 6
13 2 6
2 17 6
15 2 6
2 31 6
17 2 5
6 24 5
31 2 5
13 14 4
24 6 4
18 21 4
31 6 4
6 13 3
15 13 3
13 17 3
17 13 3
21 25 3
14 2 2
14 13 2
17 18 2
12 13 2
13 6 2
21 18 2
21 15 2
6 31 2
13 12 2
32 31 2
6 21 2
12 17 2
1 2 1
2 3 1
3 2 1
2 4 1
4 5 1
5 6 1
6 7 1
7 8 1
8 9 1
9 10 1
10 11 1
11 12 1
13 16 1
16 15 1
18 17 1
17 19 1
19 6 1
17 12 1
13 20 1
20 6 1
6 19 1
19 12 1
21 22 1
22 23 1
23 2 1
21 6 1
24 18 1
25 18 1
25 21 1
25 2 1
17 26 1
26 12 1
6 27 1
27 17 1
17 21 1
2 14 1
14 28 1
28 2 1
15 21 1
21 29 1
29 30 1
30 2 1
6 32 1
31 12 1
18 33 1
33 17 1
17 33 1
33 34 1
34 6 1
21 35 1
35 36 1
36 2 1
6 37 1
37 12 1
12 38 1
38 39 1
39 37 1
37 40 1
40 41 1
41 6 1
6 33 1
33 12 1
12 2 1
2 42 1
42 43 1
43 6 1
2 12 1
