5 10 24
10 5 24
12 5 24
9 21 23
21 9 23
5 12 22
9 5 9
5 9 9
12 13 7
13 12 7
55 54 6
5 13 5
54 56 5
51 9 5
9 51 4
54 55 4
9 7 3
7 9 3
9 12 3
13 5 3
56 54 3
56 55 3
8 9 2
51 21 2
52 53 2
53 52 2
54 52 2
21 51 2
55 56 2
51 62 2
9 54 2
54 51 2
1 2 1
2 3 1
3 4 1
4 5 1
5 6 1
6 7 1
7 8 1
5 7 1
7 5 1
5 11 1
11 1 1
1 5 1
13 8 1
5 14 1
14 15 1
15 12 1
12 16 1
16 17 1
17 18 1
18 19 1
19 9 1
5 20 1
20 9 1
21 22 1
22 23 1
23 24 1
24 5 1
12 25 1
25 9 1
9 26 1
26 21 1
12 27 1
27 12 1
5 19 1
19 5 1
9 28 1
28 5 1
13 29 1
29 30 1
30 31 1
31 12 1
5 32 1
32 33 1
33 34 1
34 1 1
1 35 1
35 36 1
36 37 1
37 38 1
38 39 1
39 5 1
5 23 1
23 5 1
5 40 1
40 41 1
41 42 1
42 43 1
43 44 1
44 5 1
9 45 1
45 12 1
12 46 1
46 47 1
47 48 1
48 49 1
49 50 1
50 9 1
21 52 1
52 54 1
52 55 1
52 57 1
57 9 1
51 58 1
58 59 1
59 9 1
5 54 1
56 5 1
12 60 1
60 5 1
5 60 1
60 61 1
61 21 1
9 62 1
62 63 1
63 64 1
64 65 1
65 51 1
62 1 1
1 66 1
66 65 1
65 54 1
54 62 1
62 67 1
67 68 1
68 69 1
69 70 1
70 71 1
71 65 1
65 62 1
62 72 1
72 66 1
66 73 1
73 74 1
74 9 1
9 53 1
53 51 1
62 75 1
75 76 1
76 53 1
