6 7 18
7 6 16
19 3 13
7 3 12
3 6 12
3 7 11
6 3 11
3 19 9
9 7 7
7 9 6
3 9 4
60 62 4
7 84 4
84 7 4
9 3 3
7 18 3
3 20 3
3 5 3
5 3 3
23 3 3
20 3 3
3 62 3
62 84 3
84 62 3
6 20 3
20 19 2
37 40 2
40 37 2
45 3 2
3 45 2
51 50 2
62 60 2
3 66 2
66 3 2
3 60 2
7 74 2
74 7 2
6 9 2
91 84 2
84 1 2
1 84 2
6 91 2
91 6 2
1 2 1
2 1 1
1 3 1
3 4 1
4 5 1
5 6 1
7 8 1
8 7 1
9 10 1
10 7 1
7 11 1
11 3 1
3 12 1
12 3 1
3 13 1
13 6 1
6 14 1
14 15 1
15 13 1
13 16 1
16 9 1
3 17 1
17 7 1
18 19 1
3 8 1
8 19 1
3 21 1
21 3 1
3 22 1
22 6 1
6 23 1
3 24 1
24 25 1
25 3 1
19 7 1
7 26 1
26 27 1
27 6 1
7 28 1
28 29 1
29 30 1
30 6 1
6 31 1
31 7 1
7 32 1
32 19 1
3 33 1
33 34 1
34 35 1
35 36 1
36 37 1
37 38 1
38 39 1
39 37 1
40 41 1
41 40 1
37 1 1
1 41 1
41 1 1
1 42 1
42 1 1
1 43 1
43 44 1
44 45 1
45 46 1
46 3 1
45 47 1
47 3 1
3 48 1
48 45 1
3 49 1
49 50 1
50 51 1
50 52 1
52 51 1
50 53 1
53 3 1
7 54 1
54 6 1
3 55 1
55 56 1
56 57 1
57 58 1
58 45 1
45 59 1
59 60 1
60 61 1
61 60 1
60 63 1
63 60 1
60 64 1
64 23 1
23 65 1
65 3 1
3 23 1
66 67 1
67 66 1
6 68 1
68 3 1
7 68 1
68 69 1
69 23 1
23 60 1
60 70 1
70 62 1
62 23 1
60 3 1
62 3 1
62 71 1
71 60 1
62 72 1
72 62 1
62 73 1
73 7 1
18 7 1
18 8 1
8 75 1
75 6 1
6 76 1
76 77 1
77 78 1
78 79 1
79 80 1
80 18 1
18 81 1
81 1 1
1 82 1
82 83 1
83 84 1
84 85 1
85 86 1
86 1 1
1 87 1
87 6 1
9 88 1
88 9 1
9 89 1
89 6 1
6 90 1
90 7 1
7 91 1
84 91 1
62 92 1
92 93 1
93 84 1
84 94 1
94 3 1
3 95 1
95 96 1
96 97 1
97 66 1
66 45 1
45 98 1
98 99 1
99 100 1
100 101 1
101 40 1
40 6 1
20 6 1
20 7 1
3 102 1
102 7 1
9 6 1
3 103 1
103 3 1
84 104 1
104 84 1
84 105 1
105 3 1
7 20 1
3 84 1
84 106 1
106 7 1
7 107 1
107 6 1
6 108 1
108 3 1
62 109 1
109 110 1
110 62 1
62 110 1
110 111 1
111 62 1
62 8 1
