6 10 63
10 6 63
59 58 45
6 21 42
21 6 41
10 9 40
58 59 37
9 10 36
10 59 26
21 10 24
10 21 21
59 10 21
42 10 20
10 42 20
58 6 18
58 10 18
4 6 16
6 4 15
10 58 15
6 58 14
10 8 13
8 10 12
10 41 10
41 10 10
46 47 10
47 10 10
32 10 9
10 32 9
49 10 9
10 47 8
47 46 8
50 9 8
42 50 8
9 8 7
21 4 7
10 46 7
50 10 7
9 50 7
50 42 7
10 49 7
8 9 6
18 21 6
4 42 6
4 46 6
46 10 6
42 47 6
21 58 6
58 21 6
58 64 6
9 18 5
18 9 5
21 18 5
10 36 5
36 10 5
4 21 5
10 50 5
21 59 5
64 58 5
6 18 4
22 8 4
42 4 4
46 4 4
47 48 4
6 59 4
57 4 4
4 5 3
18 6 3
8 22 3
33 10 3
34 6 3
41 4 3
42 6 3
47 42 3
6 47 3
47 49 3
46 42 3
48 10 3
47 50 3
9 42 3
56 21 3
59 21 3
57 47 3
47 57 3
61 57 3
4 61 3
42 59 3
2 3 2
3 4 2
5 4 2
8 6 2
9 6 2
11 10 2
8 12 2
6 8 2
10 18 2
18 10 2
18 20 2
20 18 2
21 9 2
10 22 2
9 22 2
30 21 2
21 32 2
10 33 2
6 34 2
10 4 2
4 41 2
42 41 2
37 42 2
45 21 2
21 47 2
48 46 2
47 6 2
49 50 2
50 21 2
10 48 2
9 46 2
9 47 2
42 9 2
49 42 2
42 49 2
10 55 2
59 6 2
47 4 2
4 57 2
57 61 2
61 4 2
61 47 2
59 42 2
1 2 1
4 2 1
5 6 1
6 7 1
7 6 1
4 8 1
6 9 1
8 11 1
12 8 1
12 9 1
10 11 1
10 13 1
13 14 1
14 15 1
15 16 1
16 17 1
17 9 1
6 19 1
19 6 1
9 2 1
2 8 1
22 10 1
22 23 1
23 10 1
22 9 1
9 24 1
24 9 1
8 25 1
25 26 1
26 10 1
8 27 1
27 28 1
28 29 1
29 30 1
30 31 1
31 30 1
21 30 1
10 27 1
27 33 1
6 35 1
35 6 1
6 32 1
32 21 1
32 34 1
32 37 1
37 4 1
4 38 1
38 39 1
39 40 1
40 10 1
41 42 1
4 37 1
42 37 1
21 43 1
43 21 1
21 42 1
21 44 1
44 9 1
9 21 1
6 42 1
6 45 1
47 21 1
48 21 1
21 48 1
48 47 1
46 21 1
50 49 1
10 51 1
51 52 1
52 50 1
50 6 1
6 50 1
21 50 1
50 47 1
4 53 1
53 4 1
4 10 1
10 35 1
35 21 1
10 24 1
24 10 1
42 54 1
54 10 1
42 46 1
8 42 1
46 52 1
52 48 1
48 42 1
49 47 1
49 48 1
48 49 1
55 8 1
55 6 1
21 56 1
21 45 1
45 57 1
57 58 1
58 45 1
6 56 1
58 56 1
56 58 1
59 56 1
6 44 1
44 21 1
10 60 1
60 21 1
59 47 1
21 57 1
46 62 1
62 57 1
47 58 1
58 63 1
63 10 1
59 4 1
57 48 1
48 57 1
57 59 1
59 61 1
4 47 1
47 61 1
42 21 1
64 42 1
42 61 1
61 42 1
6 65 1
65 66 1
66 67 1
67 68 1
68 69 1
69 21 1
21 70 1
70 21 1
6 49 1
50 59 1
8 71 1
71 72 1
