73 78 37
78 73 37
78 84 28
84 78 26
76 78 23
78 122 22
122 78 22
78 76 20
80 78 14
78 80 14
76 73 11
73 76 10
84 73 10
86 80 10
80 99 9
99 80 9
80 86 9
73 84 9
73 122 9
122 126 8
122 73 8
126 122 7
126 78 7
21 11 6
22 19 6
19 22 6
78 99 6
78 102 6
102 78 6
8 4 5
11 21 5
4 73 5
74 73 5
73 80 5
73 86 5
102 73 5
78 126 5
4 8 4
7 9 4
12 11 4
17 6 4
62 8 4
73 4 4
93 78 4
78 93 4
80 102 4
61 78 4
86 73 4
99 78 4
73 102 4
73 126 4
8 73 4
99 102 4
11 12 3
11 14 3
14 11 3
19 42 3
62 63 3
8 62 3
65 66 3
73 74 3
78 79 3
79 78 3
83 78 3
21 86 3
86 17 3
78 6 3
84 17 3
17 78 3
99 73 3
80 17 3
102 80 3
80 76 3
115 86 3
86 78 3
102 99 3
73 17 3
78 61 3
126 73 3
73 8 3
11 134 3
6 7 2
11 17 2
19 12 2
22 14 2
14 22 2
30 22 2
42 19 2
50 22 2
22 50 2
2 17 2
63 62 2
66 65 2
76 80 2
78 83 2
78 21 2
78 91 2
91 78 2
98 84 2
17 73 2
78 86 2
17 122 2
122 17 2
122 6 2
6 122 2
122 2 2
2 122 2
99 84 2
78 124 2
124 122 2
126 84 2
76 99 2
102 84 2
102 76 2
73 61 2
61 73 2
86 129 2
129 86 2
143 144 2
148 149 2
149 148 2
1 2 1
2 3 1
3 4 1
4 5 1
5 3 1
3 6 1
7 8 1
4 9 1
9 10 1
10 11 1
12 13 1
13 11 1
11 2 1
2 7 1
9 12 1
11 15 1
15 16 1
16 11 1
17 18 1
18 6 1
6 19 1
12 19 1
12 14 1
14 17 1
6 20 1
20 11 1
17 11 1
11 9 1
9 22 1
14 23 1
23 22 1
22 24 1
24 25 1
25 11 1
11 26 1
26 14 1
22 27 1
27 28 1
28 29 1
29 14 1
14 30 1
22 31 1
31 32 1
32 33 1
33 34 1
34 35 1
35 21 1
11 36 1
36 37 1
37 38 1
38 39 1
39 22 1
22 30 1
22 40 1
40 41 1
41 42 1
19 43 1
43 22 1
22 44 1
44 45 1
45 46 1
46 19 1
42 47 1
47 48 1
48 22 1
22 49 1
49 50 1
50 19 1
42 51 1
51 52 1
52 19 1
22 53 1
53 19 1
19 54 1
54 55 1
55 56 1
56 57 1
57 58 1
58 22 1
19 59 1
59 2 1
17 21 1
21 60 1
60 61 1
61 62 1
63 64 1
64 62 1
8 65 1
66 67 1
67 17 1
17 2 1
17 68 1
68 67 1
67 69 1
69 70 1
70 69 1
69 17 1
6 71 1
71 72 1
72 6 1
6 2 1
2 4 1
4 74 1
73 75 1
75 74 1
76 77 1
77 76 1
79 76 1
76 79 1
80 50 1
50 80 1
80 81 1
81 78 1
76 82 1
82 83 1
84 29 1
29 85 1
85 34 1
34 86 1
86 35 1
35 78 1
84 2 1
2 87 1
87 78 1
78 87 1
87 88 1
88 76 1
76 87 1
87 76 1
76 89 1
89 78 1
86 21 1
17 76 1
6 90 1
90 84 1
84 92 1
92 90 1
90 27 1
27 76 1
78 29 1
29 90 1
90 73 1
73 93 1
93 73 1
93 80 1
78 94 1
94 84 1
78 95 1
95 76 1
84 96 1
96 97 1
97 98 1
84 98 1
99 17 1
17 100 1
100 99 1
73 99 1
17 7 1
9 101 1
101 86 1
86 27 1
27 29 1
29 34 1
34 99 1
102 103 1
103 84 1
84 103 1
103 78 1
84 61 1
17 8 1
8 78 1
78 104 1
104 80 1
80 84 1
84 105 1
105 78 1
80 106 1
106 80 1
80 107 1
107 76 1
99 108 1
108 2 1
2 109 1
109 86 1
80 110 1
110 99 1
80 73 1
17 80 1
76 86 1
86 111 1
111 80 1
80 112 1
112 73 1
73 6 1
6 84 1
17 113 1
113 78 1
6 80 1
99 114 1
114 76 1
76 102 1
102 115 1
17 116 1
116 117 1
117 118 1
118 17 1
9 102 1
102 4 1
78 119 1
119 78 1
78 120 1
120 73 1
84 76 1
73 112 1
112 99 1
78 121 1
121 78 1
78 17 1
122 123 1
123 122 1
122 7 1
9 27 1
27 122 1
122 34 1
34 122 1
6 99 1
73 7 1
7 78 1
122 124 1
124 125 1
125 78 1
78 125 1
125 122 1
122 127 1
127 78 1
61 102 1
6 128 1
128 78 1
78 8 1
76 8 1
8 102 1
84 102 1
86 99 1
102 126 1
99 76 1
73 111 1
111 115 1
17 102 1
78 115 1
86 130 1
130 86 1
78 131 1
131 61 1
84 130 1
130 102 1
86 126 1
122 93 1
78 132 1
132 73 1
99 133 1
133 11 1
134 135 1
135 12 1
134 136 1
136 16 1
16 118 1
118 11 1
134 18 1
18 122 1
122 137 1
137 138 1
138 139 1
139 78 1
78 140 1
140 138 1
138 78 1
78 141 1
141 142 1
142 143 1
144 143 1
144 145 1
145 146 1
146 147 1
147 148 1
148 42 1
42 55 1
55 42 1
