6 2 34
14 2 32
2 14 32
2 6 28
4 17 25
7 5 23
17 4 23
2 9 22
5 7 21
9 2 19
15 2 18
2 15 17
7 2 13
2 5 12
5 2 11
2 7 11
2 4 10
3 7 10
7 3 8
9 12 8
3 4 7
4 2 7
5 3 7
20 2 7
2 3 6
4 7 6
3 5 6
4 6 6
12 9 6
12 2 6
2 20 6
5 4 5
2 11 5
6 4 5
3 2 4
2 8 4
4 3 4
2 12 4
1 2 3
8 2 3
7 4 3
4 5 3
9 6 3
4 10 3
10 4 3
11 2 3
17 2 3
2 1 2
11 6 2
12 14 2
7 14 2
6 20 2
2 17 2
21 3 2
14 15 2
9 3 1
6 11 1
11 9 1
6 9 1
4 12 1
2 13 1
13 9 1
9 15 1
5 16 1
16 5 1
5 6 1
17 18 1
18 7 1
14 9 1
14 12 1
14 5 1
5 19 1
19 5 1
7 17 1
4 14 1
20 6 1
17 5 1
5 11 1
11 5 1
5 21 1
3 21 1
3 22 1
22 23 1
23 15 1
15 24 1
24 23 1
23 6 1
6 15 1
15 14 1
15 6 1
2 22 1
22 2 1
15 25 1
25 3 1
14 22 1
22 6 1
6 17 1
17 9 1
9 20 1
20 26 1
26 20 1
20 7 1
8 14 1
14 6 1
