19 4 22
19 28 21
4 19 21
25 19 19
28 19 19
19 25 19
18 19 18
26 25 17
21 18 15
25 26 14
19 18 13
3 4 12
8 4 12
19 20 12
20 19 12
4 3 11
18 21 11
17 26 11
5 6 10
4 8 10
19 17 10
26 17 10
17 19 9
10 3 8
10 8 8
25 18 8
18 25 8
2 4 6
4 2 6
4 10 6
3 10 6
19 21 6
2 10 5
19 5 5
6 33 5
2 3 4
8 2 4
19 31 4
31 17 4
17 31 4
31 19 4
3 2 3
3 8 3
8 10 3
26 19 3
18 12 3
18 24 3
24 18 3
25 5 3
21 19 3
5 25 3
34 19 3
25 21 3
18 5 3
33 34 3
25 20 3
20 25 3
41 19 3
6 4 2
4 5 2
9 4 2
10 4 2
8 14 2
14 8 2
8 3 2
17 9 2
25 24 2
24 26 2
12 19 2
12 18 2
21 25 2
24 21 2
21 24 2
18 17 2
17 18 2
28 26 2
25 28 2
28 25 2
5 26 2
17 25 2
6 18 2
19 6 2
17 37 2
37 17 2
37 31 2
5 37 2
21 5 2
18 31 2
17 5 2
20 18 2
33 5 2
40 19 2
19 41 2
19 42 2
19 43 2
43 19 2
45 24 2
1 2 1
3 5 1
6 7 1
7 8 1
2 9 1
4 9 1
10 2 1
8 11 1
11 8 1
8 12 1
12 13 1
13 8 1
10 5 1
5 10 1
10 14 1
14 10 1
10 6 1
6 2 1
2 8 1
3 15 1
15 4 1
4 14 1
14 3 1
8 16 1
16 2 1
2 17 1
9 17 1
9 2 1
8 18 1
20 21 1
18 22 1
22 19 1
21 23 1
23 24 1
24 25 1
19 12 1
6 20 1
5 18 1
17 27 1
27 21 1
26 28 1
21 26 1
21 20 1
20 29 1
29 18 1
18 30 1
30 19 1
25 29 1
29 19 1
31 32 1
32 17 1
17 21 1
24 28 1
28 17 1
6 25 1
25 33 1
33 19 1
25 34 1
25 35 1
35 19 1
19 36 1
36 19 1
31 5 1
5 21 1
6 31 1
31 18 1
19 38 1
38 19 1
31 24 1
5 17 1
5 39 1
39 26 1
26 31 1
31 25 1
26 6 1
31 37 1
37 18 1
25 17 1
26 18 1
34 17 1
18 20 1
19 40 1
42 41 1
42 40 1
28 44 1
44 19 1
4 17 1
19 35 1
35 5 1
5 4 1
6 17 1
17 6 1
4 21 1
19 23 1
23 19 1
19 26 1
19 45 1
24 45 1
24 20 1
