3 7 33
7 3 32
8 14 24
9 8 22
14 8 21
28 8 21
8 28 20
8 9 19
10 8 18
8 18 17
8 12 16
18 8 16
8 10 15
8 25 15
25 8 14
8 3 14
12 8 13
3 4 12
20 18 12
26 18 11
3 8 11
4 3 10
18 26 10
32 14 8
4 7 7
18 3 7
14 32 7
11 41 7
41 11 7
8 11 6
11 8 6
18 20 6
2 8 6
7 4 5
7 8 5
8 2 5
4 6 4
6 4 4
15 16 4
3 18 4
10 12 4
43 39 4
8 20 4
18 15 3
16 18 3
31 14 3
14 31 3
14 33 3
39 43 3
18 10 3
8 7 3
28 62 3
5 4 2
16 15 2
15 18 2
18 16 2
21 8 2
8 22 2
22 8 2
9 10 2
25 12 2
12 25 2
18 5 2
8 29 2
29 8 2
33 14 2
4 18 2
18 36 2
37 8 2
9 37 2
37 9 2
39 12 2
12 39 2
12 40 2
40 12 2
12 10 2
42 39 2
39 9 2
39 8 2
12 14 2
20 26 2
26 20 2
14 9 2
20 8 2
62 28 2
1 2 1
2 3 1
4 5 1
6 8 1
9 13 1
13 8 1
14 15 1
16 17 1
17 18 1
18 19 1
19 18 1
3 6 1
11 21 1
8 21 1
9 12 1
8 23 1
23 24 1
24 8 1
14 11 1
25 26 1
18 27 1
27 18 1
5 18 1
4 30 1
30 25 1
25 9 1
8 31 1
31 32 1
33 3 1
4 34 1
34 4 1
3 35 1
35 4 1
36 4 1
36 18 1
3 37 1
8 37 1
37 14 1
14 38 1
38 37 1
8 39 1
12 11 1
11 14 1
11 12 1
10 9 1
9 14 1
8 42 1
39 42 1
10 14 1
14 39 1
12 9 1
9 43 1
39 10 1
9 39 1
7 9 1
14 10 1
3 9 1
14 20 1
26 3 1
18 44 1
44 18 1
9 20 1
18 45 1
45 8 1
14 12 1
12 20 1
18 46 1
46 9 1
10 18 1
12 18 1
8 26 1
18 47 1
47 8 1
18 48 1
48 14 1
14 18 1
18 49 1
49 10 1
12 22 1
22 18 1
18 22 1
22 26 1
26 22 1
22 50 1
50 8 1
18 51 1
51 2 1
2 52 1
52 44 1
44 3 1
3 53 1
53 54 1
54 8 1
18 55 1
55 18 1
8 56 1
56 8 1
8 57 1
57 10 1
12 58 1
58 9 1
10 20 1
3 14 1
8 59 1
59 28 1
28 11 1
3 11 1
11 60 1
60 61 1
61 28 1
62 14 1
14 62 1
62 8 1
14 28 1
8 63 1
63 2 1
