46 17 64
17 46 64
17 21 59
21 17 54
17 18 26
19 17 26
18 17 21
21 19 21
29 17 20
17 29 17
17 19 16
17 28 16
19 21 15
28 17 14
18 52 12
30 17 11
46 21 10
52 18 10
30 58 10
21 46 9
17 30 8
49 46 8
58 30 8
21 22 7
46 49 7
22 21 6
19 18 6
52 19 6
19 67 6
27 17 5
17 27 5
13 21 5
67 19 5
6 9 4
9 6 4
18 19 4
28 30 4
21 13 4
6 8 3
8 6 3
15 13 3
13 15 3
15 16 3
20 17 3
17 20 3
16 23 3
43 29 3
29 43 3
19 29 3
18 46 3
46 28 3
18 30 3
17 33 3
13 16 2
16 13 2
16 15 2
16 17 2
23 16 2
25 24 2
23 33 2
10 19 2
17 35 2
35 19 2
17 37 2
37 23 2
23 17 2
17 13 2
29 21 2
18 21 2
44 17 2
18 29 2
29 18 2
50 49 2
30 28 2
29 53 2
53 29 2
19 52 2
30 46 2
58 59 2
27 10 2
21 18 2
46 29 2
46 18 2
28 46 2
46 19 2
63 19 2
19 64 2
64 19 2
19 66 2
66 17 2
19 46 2
33 17 2
1 2 1
2 3 1
3 4 1
4 5 1
5 4 1
4 6 1
6 7 1
7 6 1
6 10 1
10 11 1
11 12 1
12 13 1
13 12 1
12 14 1
14 15 1
19 20 1
22 16 1
23 24 1
24 25 1
24 26 1
26 25 1
24 27 1
20 21 1
17 31 1
31 32 1
32 33 1
33 34 1
34 23 1
33 13 1
13 29 1
28 19 1
21 27 1
28 21 1
18 10 1
17 36 1
36 17 1
30 29 1
21 28 1
17 38 1
38 39 1
39 38 1
38 40 1
40 41 1
41 17 1
17 42 1
42 17 1
27 43 1
43 19 1
29 44 1
17 44 1
29 28 1
30 45 1
45 30 1
46 47 1
47 46 1
46 27 1
27 46 1
46 48 1
48 46 1
46 50 1
49 50 1
49 51 1
51 27 1
27 30 1
46 52 1
29 52 1
46 54 1
54 17 1
17 54 1
54 46 1
27 55 1
55 56 1
56 10 1
10 28 1
28 35 1
35 28 1
28 18 1
30 18 1
30 57 1
57 30 1
59 58 1
59 30 1
58 60 1
60 27 1
10 27 1
17 10 1
10 18 1
18 49 1
29 61 1
61 46 1
18 27 1
17 62 1
62 17 1
17 63 1
19 63 1
64 65 1
65 64 1
66 19 1
67 17 1
46 30 1
30 19 1
17 66 1
27 67 1
67 46 1
17 61 1
61 30 1
28 29 1
21 29 1
13 17 1
21 30 1
19 68 1
68 29 1
17 23 1
33 19 1
33 21 1
21 33 1
33 46 1
18 69 1
69 70 1
70 17 1
29 71 1
71 72 1
72 16 1
17 73 1
