25 41 42
41 25 41
25 62 26
62 25 25
55 25 23
25 99 22
99 25 22
25 55 20
58 25 14
25 58 13
55 41 11
62 41 11
41 55 10
58 77 10
64 58 10
58 64 9
41 62 9
41 99 9
77 58 8
99 102 8
99 41 8
18 13 7
102 99 7
102 25 7
10 8 6
15 8 6
41 58 6
25 77 6
25 88 6
88 25 6
6 3 5
8 9 5
8 15 5
13 18 5
53 41 5
64 25 5
41 64 5
88 41 5
25 102 5
3 6 4
9 8 4
8 10 4
6 42 4
42 6 4
70 25 4
25 70 4
40 25 4
64 41 4
77 25 4
41 88 4
41 102 4
6 41 4
77 88 4
13 29 3
18 30 3
40 41 3
41 40 3
44 45 3
41 3 3
41 53 3
25 57 3
57 25 3
61 25 3
15 64 3
77 41 3
77 62 3
58 55 3
91 64 3
88 77 3
25 40 3
102 41 3
41 6 3
13 10 2
30 18 2
42 43 2
45 44 2
3 41 2
55 58 2
25 61 2
65 25 2
25 65 2
65 55 2
55 65 2
25 15 2
5 62 2
25 67 2
67 25 2
62 76 2
76 62 2
58 41 2
58 88 2
88 58 2
25 5 2
25 64 2
99 5 2
5 99 2
25 100 2
100 99 2
102 62 2
55 77 2
88 62 2
88 55 2
64 105 2
105 64 2
1 2 1
2 3 1
3 4 1
4 2 1
2 5 1
5 6 1
3 7 1
7 6 1
3 8 1
8 7 1
7 10 1
8 11 1
11 10 1
8 12 1
12 13 1
10 13 1
10 9 1
9 5 1
5 14 1
14 10 1
10 16 1
16 8 1
8 17 1
17 18 1
18 9 1
9 19 1
19 18 1
18 8 1
9 18 1
18 20 1
20 9 1
9 21 1
21 18 1
18 15 1
8 22 1
22 23 1
23 24 1
24 25 1
25 9 1
9 25 1
25 18 1
18 21 1
21 26 1
26 18 1
13 27 1
27 18 1
13 25 1
25 28 1
28 13 1
29 13 1
29 28 1
28 18 1
30 13 1
29 31 1
31 18 1
18 32 1
32 13 1
13 33 1
33 34 1
34 35 1
35 36 1
36 37 1
37 38 1
38 25 1
25 13 1
13 39 1
39 13 1
13 15 1
15 40 1
40 42 1
43 42 1
43 3 1
6 44 1
45 46 1
46 47 1
47 46 1
46 48 1
48 49 1
49 48 1
48 50 1
50 51 1
51 3 1
3 52 1
52 41 1
3 53 1
41 54 1
54 53 1
55 56 1
56 55 1
57 55 1
55 57 1
58 30 1
30 58 1
58 59 1
59 25 1
55 60 1
60 61 1
62 63 1
63 64 1
62 65 1
65 46 1
46 25 1
64 15 1
64 55 1
25 66 1
66 5 1
62 68 1
68 66 1
66 55 1
25 69 1
69 66 1
66 41 1
41 70 1
70 41 1
41 16 1
16 25 1
70 58 1
62 71 1
71 72 1
72 25 1
25 73 1
73 62 1
25 74 1
74 55 1
25 75 1
75 62 1
77 78 1
78 79 1
79 77 1
41 77 1
58 80 1
80 81 1
81 64 1
64 82 1
82 77 1
62 83 1
83 25 1
62 40 1
62 6 1
6 25 1
25 84 1
84 58 1
58 62 1
58 85 1
85 58 1
58 86 1
86 55 1
77 87 1
87 64 1
55 64 1
62 5 1
5 89 1
89 25 1
5 58 1
77 90 1
90 55 1
55 88 1
88 91 1
64 92 1
92 93 1
93 94 1
94 88 1
88 3 1
3 95 1
95 41 1
25 96 1
96 25 1
62 55 1
41 97 1
97 77 1
25 98 1
98 25 1
25 16 1
16 99 1
99 1 1
1 25 1
99 68 1
68 99 1
99 77 1
41 5 1
99 100 1
100 101 1
101 25 1
25 101 1
101 99 1
40 88 1
5 103 1
103 25 1
25 6 1
55 6 1
6 88 1
62 88 1
64 77 1
88 102 1
77 55 1
41 104 1
104 91 1
64 88 1
25 91 1
64 106 1
106 64 1
25 107 1
107 40 1
62 106 1
106 88 1
64 102 1
99 70 1
77 108 1
