14 29 21
29 14 20
14 48 17
48 14 17
16 14 16
14 16 15
13 14 7
9 11 5
13 9 4
11 9 4
14 20 4
20 14 4
14 13 4
9 21 4
11 13 3
14 9 3
14 11 3
11 14 3
13 16 3
29 48 3
29 51 3
51 29 3
53 48 3
13 20 3
29 13 3
20 13 3
13 29 3
14 15 2
9 13 2
13 17 2
14 22 2
14 26 2
21 13 2
29 46 2
46 14 2
13 24 2
24 13 2
34 29 2
48 29 2
20 29 2
29 20 2
1 2 1
2 3 1
3 4 1
4 5 1
5 6 1
6 7 1
7 8 1
8 9 1
9 10 1
10 11 1
11 12 1
12 13 1
15 14 1
15 11 1
9 14 1
16 17 1
17 16 1
9 18 1
18 19 1
19 11 1
17 9 1
21 11 1
22 14 1
14 23 1
23 24 1
24 25 1
25 14 1
26 27 1
27 14 1
11 28 1
28 26 1
26 14 1
26 16 1
16 30 1
30 29 1
29 16 1
16 26 1
26 29 1
29 31 1
31 29 1
29 11 1
11 32 1
32 9 1
9 24 1
24 14 1
14 33 1
33 14 1
14 34 1
34 9 1
16 13 1
16 35 1
35 13 1
13 36 1
36 29 1
29 37 1
37 38 1
38 29 1
29 39 1
39 40 1
40 29 1
29 41 1
41 29 1
29 17 1
17 42 1
42 43 1
43 29 1
29 44 1
44 14 1
29 45 1
45 29 1
13 47 1
47 13 1
16 34 1
48 49 1
49 14 1
48 46 1
46 48 1
14 50 1
50 14 1
29 52 1
52 14 1
48 53 1
48 54 1
54 29 1
14 55 1
55 23 1
23 9 1
21 23 1
23 13 1
20 9 1
9 29 1
17 13 1
48 56 1
56 48 1
14 57 1
57 48 1
48 58 1
58 48 1
9 59 1
59 11 1
11 29 1
29 60 1
60 13 1
29 61 1
61 14 1
48 9 1
9 34 1
14 52 1
52 13 1
48 13 1
13 62 1
62 14 1
14 63 1
63 53 1
14 53 1
22 64 1
64 11 1
11 65 1
65 66 1
66 48 1
48 20 1
13 11 1
11 16 1
14 67 1
67 68 1
