1 2 1
2 3 1
3 4 1
4 5 1
5 6 1
6 7 1
7 8 1
8 9 1
9 10 1
10 11 1
11 12 1
12 13 1
13 3 1
3 14 1
14 15 1
15 16 1
16 17 1
17 18 1
18 19 1
19 20 1
20 21 1
21 22 1
22 23 1
23 24 1
24 25 1
25 26 1
26 27 1
27 28 1
28 29 1
29 30 1
30 31 1
31 32 1
32 33 1
33 34 1
34 14 1
14 35 1
35 36 1
36 37 1
37 10 1
10 38 1
38 39 1
39 40 1
40 41 1
41 40 1
40 2 1
2 42 1
42 43 1
43 17 1
17 44 1
44 17 1
17 10 1
10 45 1
45 46 1
46 47 1
47 48 1
48 49 1
49 44 1
44 50 1
50 10 1
10 51 1
51 40 1
40 52 1
52 53 1
53 54 1
54 48 1
48 55 1
55 56 1
56 10 1
10 44 1
44 57 1
57 58 1
58 59 1
59 60 1
60 61 1
61 62 1
62 63 1
63 64 1
64 65 1
65 3 1
3 66 1
66 3 1
3 67 1
67 68 1
68 40 1
40 69 1
69 70 1
70 10 1
10 71 1
71 72 1
72 73 1
73 74 1
74 75 1
75 76 1
76 77 1
77 78 1
78 10 1
10 79 1
79 80 1
80 81 1
81 82 1
82 83 1
83 81 1
81 84 1
84 3 1
3 85 1
85 86 1
86 48 1
48 87 1
87 88 1
88 89 1
89 90 1
90 30 1
30 10 1
10 91 1
91 10 1
10 14 1
14 92 1
92 93 1
93 94 1
94 95 1
95 96 1
96 97 1
97 98 1
98 99 1
99 100 1
100 99 1
99 101 1
101 102 1
102 40 1
40 24 1
24 88 1
88 96 1
96 103 1
103 104 1
104 105 1
105 14 1
14 106 1
106 107 1
107 108 1
108 109 1
109 96 1
96 110 1
110 111 1
111 96 1
96 112 1
112 113 1
113 48 1
48 114 1
114 115 1
115 116 1
116 40 1
40 117 1
117 118 1
118 14 1
14 50 1
50 99 1
99 10 1
10 119 1
119 120 1
120 38 1
38 121 1
121 122 1
122 123 1
123 124 1
124 125 1
125 126 1
126 117 1
117 40 1
40 18 1
18 40 1
40 127 1
127 40 1
40 128 1
128 129 1
129 130 1
130 131 1
131 132 1
132 133 1
133 134 1
134 3 1
3 10 1
10 135 1
135 136 1
136 137 1
137 18 1
18 138 1
138 139 1
139 140 1
140 141 1
141 142 1
142 3 1
