6 9 34
9 6 32
6 21 23
6 55 21
3 12 19
21 6 18
55 6 18
16 36 17
14 16 16
16 14 15
12 3 15
36 16 15
9 12 14
12 9 14
21 9 13
11 7 12
9 21 12
25 9 12
9 25 12
25 6 12
6 10 11
10 6 11
25 21 11
6 24 10
24 6 10
25 16 10
21 25 9
12 25 9
16 25 9
33 32 9
37 38 9
38 37 9
63 75 9
7 11 8
6 25 8
32 33 8
75 63 8
12 11 7
21 12 7
25 14 7
14 25 6
25 32 6
32 25 6
38 17 6
37 17 6
9 41 6
41 9 6
17 51 6
11 12 5
11 13 5
9 13 5
14 11 5
12 6 5
17 37 5
17 38 5
7 37 5
51 17 5
16 6 5
6 16 5
37 7 5
28 16 5
6 14 4
14 6 4
14 12 4
17 15 4
15 17 4
12 21 4
6 12 4
25 12 4
6 27 4
25 28 4
28 25 4
16 29 4
11 21 4
6 3 4
56 9 4
9 56 4
7 38 4
9 16 4
16 3 4
16 28 4
25 63 4
6 8 3
6 11 3
12 13 3
13 12 3
9 14 3
12 7 3
16 9 3
13 14 3
21 14 3
27 6 3
14 21 3
29 16 3
21 3 3
3 25 3
3 9 3
11 16 3
36 14 3
48 9 3
49 45 3
57 58 3
58 57 3
38 7 3
38 3 3
12 61 3
3 16 3
71 24 3
24 71 3
63 25 3
3 4 2
4 3 2
3 5 2
3 6 2
7 6 2
8 6 2
13 11 2
13 9 2
13 7 2
7 9 2
11 14 2
14 7 2
17 12 2
12 17 2
17 14 2
7 17 2
18 9 2
21 22 2
22 21 2
14 13 2
12 23 2
21 7 2
7 21 2
14 28 2
28 14 2
29 25 2
25 11 2
11 25 2
7 3 2
25 3 2
3 14 2
14 9 2
7 12 2
14 3 2
34 35 2
45 46 2
9 43 2
21 49 2
46 49 2
9 17 2
7 52 2
17 11 2
17 7 2
55 59 2
59 55 2
60 3 2
61 12 2
21 17 2
16 17 2
17 6 2
68 17 2
10 65 2
16 52 2
52 16 2
1 2 1
2 3 1
5 4 1
5 3 1
6 7 1
13 6 1
11 6 1
9 11 1
11 9 1
9 15 1
15 11 1
13 15 1
15 9 1
12 15 1
15 13 1
13 16 1
7 13 1
13 17 1
16 18 1
18 19 1
19 18 1
9 18 1
18 20 1
20 18 1
21 8 1
8 21 1
7 14 1
23 12 1
23 11 1
25 26 1
26 25 1
10 21 1
21 11 1
25 29 1
16 30 1
30 31 1
31 3 1
3 8 1
8 25 1
4 12 1
25 33 1
32 34 1
35 34 1
35 16 1
11 3 1
11 8 1
8 12 1
11 37 1
37 11 1
17 39 1
39 6 1
21 40 1
40 41 1
41 6 1
9 40 1
40 42 1
42 43 1
43 21 1
6 41 1
41 44 1
44 45 1
46 6 1
21 47 1
47 6 1
6 48 1
43 9 1
9 48 1
43 48 1
45 49 1
49 46 1
49 6 1
45 6 1
21 50 1
50 9 1
9 32 1
32 17 1
17 25 1
17 36 1
14 36 1
36 11 1
52 11 1
11 17 1
51 38 1
8 9 1
9 53 1
53 6 1
9 54 1
54 9 1
55 56 1
56 6 1
55 54 1
54 57 1
57 6 1
55 38 1
12 60 1
3 60 1
61 8 1
8 3 1
3 11 1
9 8 1
8 14 1
21 16 1
16 11 1
3 21 1
6 17 1
17 9 1
37 25 1
3 38 1
3 37 1
3 27 1
27 11 1
17 62 1
62 63 1
63 64 1
64 21 1
16 65 1
65 52 1
52 37 1
9 28 1
28 6 1
9 66 1
66 6 1
6 51 1
51 67 1
67 21 1
21 66 1
66 21 1
21 68 1
17 68 1
17 69 1
69 17 1
17 10 1
65 9 1
9 10 1
65 14 1
14 63 1
63 6 1
27 70 1
70 14 1
13 21 1
21 65 1
65 13 1
13 65 1
65 68 1
68 23 1
23 21 1
6 52 1
52 65 1
65 10 1
10 27 1
27 10 1
3 68 1
68 71 1
71 28 1
16 72 1
72 7 1
52 14 1
14 73 1
73 52 1
52 70 1
70 16 1
63 9 1
9 74 1
74 9 1
9 63 1
63 74 1
74 63 1
