3 5 70
5 3 67
3 6 34
6 3 33
43 2 22
2 43 22
5 51 19
2 40 17
40 2 16
51 5 16
3 51 15
51 3 15
2 3 13
3 2 13
18 16 13
6 5 13
16 18 12
18 2 10
18 51 10
5 6 9
11 2 8
2 18 8
51 6 8
51 18 8
3 4 7
2 11 7
4 3 6
7 3 6
6 51 6
18 42 5
42 18 5
51 2 5
3 7 4
29 2 4
2 31 4
31 2 4
16 6 4
6 18 4
2 51 4
16 17 3
17 16 3
18 24 3
2 29 3
2 12 3
12 2 3
11 43 3
43 11 3
6 7 2
9 6 2
3 12 2
5 13 2
13 3 2
17 18 2
21 2 2
24 18 2
24 2 2
31 32 2
4 5 2
2 6 2
5 43 2
18 46 2
41 48 2
43 3 2
3 50 2
46 18 2
5 18 2
18 6 2
1 2 1
7 6 1
3 8 1
8 7 1
6 9 1
6 10 1
10 9 1
6 11 1
12 3 1
12 6 1
6 4 1
4 14 1
14 5 1
3 14 1
14 6 1
4 15 1
15 16 1
18 17 1
18 19 1
19 20 1
20 3 1
3 21 1
2 21 1
2 22 1
22 4 1
4 23 1
23 18 1
24 17 1
16 5 1
5 25 1
25 5 1
5 26 1
26 5 1
5 10 1
10 4 1
4 22 1
22 27 1
27 28 1
28 13 1
13 29 1
2 30 1
30 22 1
22 2 1
2 24 1
32 31 1
32 30 1
30 31 1
2 4 1
5 4 1
6 24 1
5 33 1
33 6 1
6 34 1
34 35 1
35 24 1
24 36 1
36 24 1
24 3 1
3 37 1
37 3 1
3 38 1
38 3 1
16 3 1
2 39 1
39 2 1
6 41 1
41 18 1
40 43 1
43 6 1
43 16 1
16 44 1
44 16 1
16 45 1
45 16 1
46 16 1
6 47 1
47 3 1
5 41 1
48 41 1
48 49 1
49 41 1
41 49 1
49 43 1
43 18 1
50 6 1
50 3 1
6 52 1
52 6 1
6 43 1
18 53 1
53 18 1
51 46 1
18 37 1
37 18 1
18 5 1
6 46 1
46 6 1
2 5 1
51 16 1
2 16 1
2 54 1
