10 15 60
15 10 58
20 10 35
10 20 34
15 20 31
20 15 30
3 15 14
15 3 13
20 35 13
3 8 11
8 3 11
35 20 11
5 10 10
10 5 8
20 26 8
20 5 8
11 5 7
5 20 7
5 3 6
20 21 6
21 20 6
11 24 6
26 20 6
3 5 5
5 11 5
5 15 5
24 11 5
24 5 5
5 24 5
10 26 5
34 20 5
9 10 4
10 9 4
16 5 4
26 10 4
15 35 4
35 34 4
34 35 4
10 37 4
2 3 3
5 2 3
2 5 3
5 16 3
10 21 3
26 15 3
37 10 3
3 33 3
49 3 3
3 2 2
6 5 2
5 7 2
7 8 2
8 7 2
16 11 2
15 7 2
17 11 2
11 15 2
15 11 2
12 10 2
22 20 2
21 22 2
15 26 2
12 20 2
20 3 2
3 32 2
32 33 2
33 20 2
15 5 2
5 12 2
12 5 2
20 34 2
3 35 2
35 15 2
35 3 2
24 10 2
40 3 2
3 20 2
35 42 2
7 15 2
47 3 2
3 49 2
1 2 1
3 4 1
4 5 1
3 6 1
7 5 1
7 6 1
6 3 1
3 7 1
7 9 1
9 12 1
12 3 1
3 13 1
13 14 1
14 3 1
3 16 1
11 16 1
11 3 1
7 11 1
11 7 1
7 17 1
11 17 1
10 12 1
15 18 1
18 10 1
15 16 1
15 19 1
19 10 1
21 10 1
15 21 1
20 22 1
22 21 1
20 23 1
23 10 1
21 15 1
21 24 1
24 20 1
20 25 1
25 20 1
26 27 1
27 28 1
28 5 1
5 26 1
26 29 1
29 15 1
15 30 1
30 31 1
31 10 1
10 11 1
26 12 1
10 6 1
6 10 1
20 12 1
15 12 1
5 6 1
12 15 1
35 36 1
36 10 1
10 24 1
37 11 1
11 38 1
38 3 1
33 39 1
39 33 1
33 40 1
20 41 1
41 15 1
42 15 1
15 42 1
42 40 1
3 41 1
41 20 1
35 12 1
20 43 1
43 5 1
11 44 1
44 45 1
45 20 1
20 7 1
15 43 1
43 34 1
42 46 1
46 3 1
3 47 1
33 11 1
11 48 1
48 3 1
15 41 1
41 43 1
43 20 1
20 33 1
33 32 1
20 50 1
50 51 1
51 34 1
10 52 1
52 41 1
41 53 1
53 54 1
54 15 1
15 55 1
55 32 1
32 47 1
32 49 1
3 55 1
55 38 1
38 11 1
10 48 1
48 56 1
56 11 1
10 3 1
33 3 1
3 57 1
57 34 1
3 34 1
34 10 1
10 35 1
