16 10 63
10 16 59
9 10 23
10 9 22
10 48 14
4 10 13
48 10 13
10 4 12
34 20 11
20 34 11
17 10 10
10 17 9
16 20 8
20 16 8
4 6 7
22 20 7
18 10 7
34 10 7
6 4 6
20 21 6
20 22 6
47 48 6
48 47 6
48 16 6
10 34 6
21 20 5
5 10 5
10 18 5
16 52 5
10 6 5
15 16 4
16 17 4
17 18 4
24 25 4
31 18 4
16 48 4
16 34 4
34 16 4
68 16 4
16 15 3
21 22 3
22 21 3
23 18 3
18 23 3
25 26 3
26 24 3
25 28 3
28 25 3
10 5 3
31 20 3
6 10 3
17 35 3
35 17 3
10 22 3
17 20 3
10 20 3
20 17 3
18 31 3
52 16 3
10 52 3
6 16 3
16 68 3
4 5 2
10 11 2
13 4 2
18 17 2
23 24 2
24 23 2
24 27 2
27 25 2
30 31 2
20 31 2
25 27 2
27 28 2
32 33 2
21 16 2
18 37 2
37 18 2
39 10 2
10 39 2
29 25 2
25 24 2
17 16 2
43 20 2
18 48 2
52 10 2
18 6 2
6 57 2
6 60 2
20 18 2
1 2 1
2 3 1
3 4 1
5 4 1
5 6 1
6 7 1
7 2 1
2 8 1
8 9 1
11 9 1
9 11 1
11 4 1
10 12 1
12 13 1
10 13 1
4 9 1
9 14 1
14 10 1
4 15 1
18 19 1
19 9 1
9 20 1
20 23 1
23 25 1
25 23 1
23 29 1
29 23 1
23 17 1
17 23 1
23 5 1
5 30 1
31 30 1
20 24 1
28 32 1
33 27 1
27 29 1
29 4 1
4 34 1
34 32 1
33 17 1
18 34 1
20 4 1
10 36 1
36 18 1
10 38 1
38 39 1
39 29 1
24 26 1
25 29 1
26 25 1
28 24 1
24 17 1
22 10 1
20 26 1
26 29 1
29 10 1
10 40 1
40 16 1
17 41 1
41 10 1
10 42 1
42 43 1
20 44 1
44 45 1
45 10 1
10 43 1
20 46 1
46 20 1
20 43 1
43 10 1
16 47 1
16 22 1
16 18 1
18 36 1
36 31 1
48 49 1
49 34 1
34 48 1
48 18 1
22 16 1
18 16 1
47 50 1
50 47 1
47 51 1
51 16 1
16 21 1
52 18 1
18 24 1
25 16 1
52 5 1
52 6 1
11 10 1
16 6 1
20 6 1
6 20 1
20 5 1
22 18 1
10 53 1
53 54 1
54 18 1
10 55 1
55 18 1
6 56 1
56 6 1
57 10 1
57 58 1
58 59 1
59 10 1
6 18 1
60 20 1
18 61 1
61 18 1
18 20 1
18 62 1
62 18 1
18 60 1
60 63 1
63 16 1
16 64 1
64 10 1
20 65 1
65 20 1
60 27 1
27 66 1
66 67 1
67 16 1
16 32 1
32 6 1
10 68 1
16 69 1
69 10 1
