6 14 62
14 6 55
21 14 47
14 21 45
14 12 35
12 14 33
6 3 28
3 6 27
14 3 22
3 14 19
21 6 11
6 21 10
44 14 10
3 21 9
14 44 9
24 3 8
3 7 7
24 6 7
21 3 7
3 4 6
7 6 6
6 24 6
27 3 6
33 6 6
3 38 6
3 24 6
4 3 5
14 24 5
8 7 4
14 19 4
19 14 4
25 6 4
7 14 4
38 3 4
22 6 3
24 14 3
7 3 3
6 33 3
7 24 3
14 40 3
40 14 3
6 41 3
6 7 3
4 5 2
5 6 2
6 4 2
7 8 2
6 10 2
11 12 2
12 15 2
15 12 2
19 6 2
24 23 2
6 25 2
14 25 2
6 27 2
35 6 2
6 36 2
36 14 2
14 7 2
3 27 2
24 7 2
41 33 2
1 2 1
2 3 1
7 9 1
9 7 1
4 6 1
10 11 1
12 13 1
13 11 1
12 16 1
16 15 1
15 16 1
16 14 1
12 17 1
17 3 1
14 18 1
18 14 1
14 20 1
20 19 1
6 19 1
6 22 1
14 23 1
23 24 1
24 25 1
10 6 1
24 26 1
26 24 1
23 25 1
25 24 1
23 14 1
25 14 1
3 28 1
28 14 1
14 29 1
29 21 1
3 30 1
30 6 1
6 31 1
31 7 1
6 32 1
32 22 1
6 34 1
34 6 1
14 35 1
6 35 1
3 8 1
7 37 1
37 7 1
7 15 1
15 7 1
36 6 1
38 24 1
38 7 1
14 27 1
7 39 1
39 7 1
14 41 1
6 42 1
42 14 1
12 6 1
14 2 1
2 7 1
7 43 1
43 42 1
42 12 1
12 3 1
21 22 1
6 44 1
14 33 1
14 45 1
45 8 1
8 14 1
14 8 1
7 21 1
21 46 1
46 21 1
6 47 1
47 6 1
6 8 1
8 48 1
48 6 1
6 49 1
49 6 1
3 12 1
21 36 1
41 6 1
6 50 1
50 6 1
7 27 1
41 3 1
14 51 1
51 6 1
7 41 1
41 14 1
3 52 1
52 14 1
14 53 1
53 7 1
14 54 1
54 14 1
14 55 1
55 14 1
14 56 1
56 57 1
57 14 1
12 21 1
14 58 1
58 21 1
21 41 1
