2 3 22
3 2 21
26 7 7
7 9 6
7 26 6
22 32 6
32 22 6
9 7 5
7 13 4
24 7 4
10 7 3
7 17 3
17 7 3
22 13 3
13 26 3
6 7 2
8 7 2
9 10 2
7 10 2
10 6 2
13 7 2
13 22 2
7 25 2
25 7 2
7 24 2
26 24 2
7 28 2
15 7 2
22 6 2
2 34 2
34 2 2
7 33 2
37 39 2
39 37 2
45 6 2
34 4 2
1 2 1
3 4 1
4 5 1
5 6 1
7 8 1
10 11 1
11 12 1
12 13 1
13 6 1
10 14 1
14 15 1
15 10 1
6 16 1
16 7 1
7 18 1
18 19 1
19 15 1
15 20 1
20 7 1
7 21 1
21 22 1
22 23 1
23 22 1
13 24 1
25 22 1
22 25 1
24 26 1
26 13 1
13 27 1
27 7 1
26 23 1
23 26 1
28 22 1
22 26 1
28 2 1
3 15 1
7 15 1
7 29 1
29 30 1
30 31 1
31 22 1
6 8 1
8 9 1
9 22 1
32 6 1
6 10 1
6 33 1
33 31 1
31 9 1
7 32 1
22 9 1
7 3 1
2 4 1
4 35 1
35 10 1
33 7 1
33 22 1
6 36 1
36 37 1
37 38 1
38 37 1
39 40 1
40 35 1
35 40 1
40 39 1
39 41 1
41 39 1
39 2 1
2 39 1
37 2 1
2 42 1
42 7 1
9 8 1
7 43 1
43 13 1
13 43 1
43 17 1
17 13 1
13 44 1
44 8 1
8 45 1
6 45 1
6 13 1
26 34 1
34 3 1
3 34 1
4 34 1
