18 7 40
7 18 39
6 4 35
4 6 31
4 26 31
26 4 30
16 4 18
18 6 18
4 16 17
6 7 16
6 18 15
4 18 15
7 4 15
8 18 14
18 4 13
18 8 13
7 6 12
4 7 12
8 7 11
7 8 9
24 4 9
5 6 8
4 24 8
29 4 8
7 5 7
4 29 7
30 4 7
6 5 6
4 30 6
3 4 5
4 3 4
5 7 4
18 26 4
5 8 3
19 6 3
6 19 3
4 27 3
4 8 3
30 18 3
31 18 3
26 18 3
4 36 3
36 4 3
4 41 3
4 9 2
18 19 2
19 18 2
24 25 2
25 24 2
26 6 2
6 27 2
27 4 2
27 6 2
8 4 2
18 30 2
18 31 2
18 32 2
32 18 2
41 4 2
1 2 1
2 3 1
4 5 1
8 5 1
9 4 1
9 10 1
10 11 1
11 12 1
12 6 1
6 13 1
13 14 1
14 15 1
15 16 1
4 17 1
17 6 1
18 20 1
20 4 1
4 21 1
21 18 1
18 22 1
22 18 1
18 23 1
23 18 1
6 24 1
4 28 1
28 4 1
27 29 1
8 30 1
7 31 1
7 26 1
26 8 1
4 33 1
33 4 1
4 34 1
34 35 1
35 4 1
4 37 1
37 26 1
26 37 1
37 7 1
7 38 1
38 39 1
39 7 1
7 40 1
40 6 1
41 42 1
42 43 1
43 30 1
4 44 1
44 7 1
4 45 1
45 26 1
26 46 1
