3 11 43
11 3 42
7 3 22
3 7 20
3 13 20
13 3 18
10 3 9
3 10 8
23 3 7
3 23 6
10 11 4
26 10 4
16 3 3
11 23 3
26 3 3
3 26 3
2 3 2
3 8 2
3 9 2
11 10 2
12 3 2
14 3 2
3 2 2
3 16 2
3 19 2
19 3 2
20 3 2
3 22 2
22 11 2
3 27 2
11 28 2
3 24 2
24 3 2
3 30 2
30 3 2
1 2 1
3 4 1
4 3 1
3 5 1
5 6 1
6 2 1
2 5 1
5 7 1
8 3 1
8 7 1
9 7 1
3 12 1
13 14 1
9 3 1
3 14 1
3 15 1
15 16 1
16 17 1
17 16 1
11 18 1
18 12 1
19 7 1
7 20 1
20 21 1
21 3 1
11 20 1
20 11 1
13 20 1
20 22 1
22 3 1
13 18 1
18 20 1
11 12 1
12 11 1
11 22 1
22 24 1
24 11 1
23 11 1
23 25 1
25 22 1
23 26 1
27 3 1
10 26 1
27 26 1
11 26 1
10 27 1
27 28 1
28 14 1
14 23 1
28 27 1
27 11 1
28 29 1
29 10 1
22 12 1
12 19 1
7 24 1
24 13 1
2 11 1
11 31 1
31 20 1
