3 14 57
14 3 57
20 3 16
3 20 15
5 17 7
34 3 7
17 5 6
3 34 6
4 3 4
24 22 4
20 25 4
25 20 4
10 3 3
3 11 3
22 24 3
3 30 3
30 3 3
3 31 3
3 32 3
32 3 3
14 34 3
1 2 2
2 1 2
3 4 2
2 3 2
3 10 2
11 3 2
31 3 2
3 33 2
33 3 2
34 14 2
36 1 2
1 3 1
3 5 1
5 4 1
3 6 1
6 1 1
1 5 1
5 2 1
2 5 1
5 7 1
7 2 1
3 8 1
8 9 1
9 2 1
3 2 1
2 10 1
11 12 1
12 3 1
3 13 1
13 3 1
3 15 1
15 3 1
3 16 1
16 3 1
3 17 1
17 18 1
18 19 1
19 5 1
5 14 1
14 5 1
17 3 1
14 4 1
3 12 1
12 20 1
3 21 1
21 20 1
20 14 1
3 22 1
22 23 1
23 24 1
22 3 1
25 26 1
26 20 1
25 27 1
27 25 1
20 28 1
28 20 1
20 26 1
26 29 1
29 26 1
26 25 1
3 18 1
18 3 1
14 12 1
12 14 1
31 14 1
34 35 1
35 34 1
3 36 1
1 36 1
1 37 1
