2 5 37
5 2 33
5 10 17
10 5 13
20 2 9
5 20 8
2 20 6
20 5 6
10 2 5
5 9 4
2 10 4
5 14 4
9 5 3
18 5 3
1 5 3
2 14 3
14 1 3
5 4 2
5 8 2
9 2 2
15 5 2
5 16 2
5 18 2
14 5 2
23 5 2
10 22 2
22 10 2
20 24 2
16 20 2
1 2 1
2 3 1
3 4 1
4 3 1
3 5 1
5 6 1
6 2 1
4 7 1
7 4 1
4 2 1
8 2 1
2 4 1
4 5 1
2 9 1
10 11 1
11 12 1
12 8 1
8 12 1
12 13 1
13 5 1
14 15 1
15 2 1
2 15 1
16 10 1
10 1 1
1 15 1
15 17 1
17 18 1
18 19 1
19 5 1
4 9 1
9 20 1
20 9 1
9 21 1
21 18 1
8 1 1
14 22 1
22 11 1
11 14 1
14 23 1
16 2 1
5 23 1
5 11 1
11 3 1
3 23 1
23 15 1
10 20 1
20 16 1
16 5 1
20 10 1
10 14 1
14 10 1
10 3 1
3 2 1
2 19 1
19 20 1
24 16 1
24 5 1
2 16 1
2 25 1
25 5 1
5 26 1
26 5 1
2 11 1
11 20 1
14 20 1
10 15 1
15 22 1
22 2 1
1 14 1
14 2 1
14 19 1
19 14 1
20 14 1
