13 6 19
6 13 16
6 4 13
1 2 12
2 1 12
4 6 11
1 15 10
13 22 9
22 13 9
15 1 9
17 1 8
1 17 7
22 6 7
6 22 7
12 20 6
20 12 6
6 2 5
2 12 5
21 20 4
12 2 4
38 6 4
20 21 3
2 6 3
6 38 3
5 6 2
4 13 2
15 16 2
16 15 2
2 13 2
31 34 2
34 35 2
35 34 2
6 41 2
44 43 2
43 6 2
6 20 2
20 44 2
1 3 1
3 4 1
4 5 1
6 7 1
7 8 1
8 7 1
7 4 1
4 9 1
9 10 1
10 11 1
11 5 1
5 3 1
3 12 1
12 13 1
13 4 1
13 3 1
3 6 1
6 14 1
14 6 1
13 7 1
7 13 1
13 15 1
15 17 1
1 18 1
18 19 1
19 13 1
13 20 1
20 13 1
4 21 1
20 6 1
22 23 1
23 24 1
24 12 1
12 25 1
25 6 1
6 12 1
12 6 1
6 26 1
26 27 1
27 5 1
4 22 1
22 4 1
4 28 1
28 29 1
29 30 1
30 29 1
29 22 1
6 31 1
31 32 1
32 31 1
31 33 1
33 31 1
34 31 1
34 15 1
15 36 1
36 1 1
15 37 1
37 2 1
12 38 1
6 39 1
39 19 1
19 40 1
40 6 1
41 1 1
1 4 1
41 2 1
2 22 1
22 38 1
38 22 1
22 1 1
1 22 1
22 2 1
2 42 1
42 1 1
1 39 1
39 43 1
43 44 1
44 1 1
1 20 1
20 45 1
