17 8 36
8 17 33
3 4 18
4 3 17
8 2 17
2 8 16
8 6 7
6 8 6
8 14 6
14 8 6
13 7 5
14 7 5
7 13 4
2 6 4
6 2 4
7 14 4
7 26 4
26 7 4
10 8 3
8 7 3
18 17 3
2 12 2
8 10 2
7 8 2
8 18 2
7 21 2
7 22 2
22 7 2
16 8 2
27 14 2
29 2 2
1 2 1
2 3 1
4 5 1
5 6 1
6 7 1
7 5 1
5 8 1
8 9 1
9 10 1
8 11 1
11 8 1
12 2 1
12 8 1
10 6 1
2 13 1
13 10 1
7 15 1
15 10 1
10 15 1
15 16 1
16 17 1
17 18 1
17 13 1
13 19 1
19 20 1
20 13 1
21 7 1
13 21 1
21 19 1
19 7 1
21 13 1
7 2 1
2 20 1
20 8 1
8 23 1
23 8 1
8 20 1
20 17 1
2 16 1
6 14 1
7 16 1
16 14 1
14 24 1
24 25 1
25 7 1
14 13 1
13 27 1
7 4 1
4 14 1
17 2 1
8 28 1
28 2 1
2 17 1
8 27 1
14 3 1
3 14 1
14 16 1
6 29 1
2 29 1
14 2 1
