11 4 73
4 11 71
4 13 44
13 4 40
15 4 36
4 15 31
13 12 16
12 13 14
6 4 11
4 6 10
17 15 9
15 17 8
15 13 7
13 15 7
12 15 7
4 12 6
4 26 6
26 4 6
32 4 5
50 11 5
4 16 4
4 33 4
40 4 4
15 12 4
11 50 4
4 5 3
5 4 3
8 4 3
21 22 3
22 21 3
27 4 3
30 26 3
4 31 3
31 4 3
15 32 3
4 34 3
33 4 3
11 40 3
12 4 3
4 51 3
51 4 3
13 40 3
4 53 3
16 4 3
4 8 2
12 29 2
4 30 2
26 30 2
32 15 2
4 32 2
34 4 2
39 11 2
4 27 2
51 13 2
54 51 2
53 4 2
63 4 2
1 2 1
2 3 1
3 4 1
4 7 1
7 6 1
6 8 1
4 9 1
9 4 1
4 10 1
10 4 1
11 6 1
4 14 1
14 13 1
16 17 1
15 16 1
16 15 1
11 18 1
18 11 1
4 19 1
19 4 1
4 20 1
20 21 1
21 4 1
4 22 1
22 4 1
4 23 1
23 4 1
4 24 1
24 4 1
4 25 1
25 4 1
26 27 1
4 28 1
28 12 1
29 12 1
30 13 1
13 30 1
30 4 1
15 33 1
33 34 1
34 35 1
35 33 1
33 15 1
34 32 1
33 32 1
4 36 1
36 11 1
11 35 1
35 4 1
4 37 1
37 11 1
4 38 1
38 39 1
11 41 1
41 11 1
13 42 1
42 15 1
4 40 1
40 35 1
35 37 1
37 4 1
13 11 1
15 43 1
43 44 1
44 12 1
12 45 1
45 15 1
12 46 1
46 29 1
29 47 1
47 4 1
13 48 1
48 11 1
4 49 1
49 50 1
40 39 1
13 52 1
52 15 1
15 31 1
31 15 1
29 53 1
53 47 1
47 51 1
51 29 1
29 54 1
51 54 1
15 55 1
55 51 1
4 56 1
56 13 1
4 55 1
55 4 1
53 15 1
13 57 1
57 40 1
40 58 1
58 13 1
40 59 1
59 4 1
4 60 1
60 11 1
11 61 1
61 11 1
4 62 1
62 11 1
4 63 1
11 64 1
64 4 1
4 65 1
65 66 1
66 11 1
11 67 1
67 68 1
68 69 1
69 70 1
70 63 1
4 71 1
71 4 1
4 17 1
17 4 1
13 17 1
17 13 1
13 72 1
72 13 1
12 73 1
73 13 1
