5 4 16
4 5 14
13 6 14
6 13 11
9 10 9
10 9 9
13 2 9
13 10 9
10 13 8
7 3 7
2 13 7
2 5 6
5 2 6
6 7 6
3 10 6
10 3 6
4 2 5
2 6 5
7 2 5
2 3 4
3 2 4
6 5 4
5 6 4
2 7 4
8 5 4
5 8 4
12 8 4
3 13 4
8 12 4
2 4 3
4 6 3
8 4 3
13 11 3
3 7 3
2 9 3
6 27 3
11 6 3
6 11 3
5 7 2
6 4 2
4 8 2
5 12 2
11 13 2
11 8 2
7 13 2
6 2 2
8 17 2
17 8 2
9 2 2
3 26 2
27 6 2
6 33 2
1 2 1
7 6 1
6 3 1
3 8 1
6 8 1
8 9 1
9 5 1
2 8 1
8 11 1
11 12 1
8 2 1
12 5 1
5 13 1
2 14 1
14 5 1
13 7 1
13 15 1
15 3 1
10 6 1
10 16 1
16 7 1
7 10 1
3 11 1
7 17 1
17 12 1
12 6 1
13 5 1
6 18 1
18 13 1
2 12 1
12 11 1
11 19 1
19 13 1
13 20 1
20 6 1
8 21 1
21 5 1
12 13 1
6 22 1
22 6 1
6 23 1
23 3 1
2 24 1
24 5 1
12 2 1
9 7 1
7 25 1
25 3 1
26 3 1
26 6 1
27 13 1
6 28 1
28 11 1
11 2 1
7 29 1
29 7 1
3 30 1
30 31 1
31 17 1
17 6 1
6 32 1
32 6 1
33 6 1
33 11 1
11 5 1
2 34 1
