19 11 17
11 19 16
5 2 15
2 5 14
11 12 14
12 11 12
5 4 10
2 6 10
4 5 9
6 2 9
8 17 9
17 8 9
8 2 7
4 2 6
3 4 5
2 4 5
6 8 5
2 8 5
4 3 4
3 5 4
11 6 4
16 8 4
19 20 4
20 19 4
25 26 4
19 2 4
2 19 4
2 3 3
5 3 3
2 7 3
6 11 3
8 16 3
26 25 3
19 28 3
28 19 3
8 6 3
26 35 3
35 26 3
5 8 2
8 5 2
21 22 2
4 19 2
26 30 2
30 26 2
19 33 2
33 19 2
7 6 2
6 7 2
26 36 2
36 26 2
26 37 2
37 26 2
1 2 1
7 3 1
3 2 1
3 9 1
9 10 1
10 11 1
2 11 1
12 13 1
13 14 1
14 15 1
15 5 1
2 16 1
8 18 1
18 19 1
11 21 1
22 23 1
23 24 1
24 22 1
22 21 1
22 25 1
26 27 1
27 19 1
19 4 1
28 5 1
2 29 1
29 2 1
19 26 1
26 28 1
11 31 1
31 11 1
11 32 1
32 11 1
19 18 1
18 2 1
8 7 1
7 8 1
7 2 1
7 19 1
19 34 1
34 2 1
2 26 1
26 21 1
21 35 1
35 16 1
16 11 1
11 38 1
38 11 1
11 39 1
39 11 1
12 2 1
5 28 1
