2 13 77
13 2 69
20 2 47
2 20 44
2 18 40
18 2 38
18 20 37
20 18 33
26 18 21
18 26 20
20 26 13
2 3 12
11 2 11
26 20 10
21 18 9
17 2 8
26 2 8
18 21 8
2 11 7
30 2 5
2 26 5
3 4 4
6 2 4
2 4 4
4 2 4
3 2 4
13 17 4
2 30 4
44 13 4
4 15 3
23 24 3
24 23 3
26 27 3
2 6 3
18 17 3
2 17 3
2 5 3
44 2 3
2 44 3
16 2 2
15 22 2
20 3 2
27 26 2
13 30 2
6 11 2
13 4 2
11 33 2
33 11 2
45 44 2
13 45 2
5 2 2
1 2 1
4 5 1
5 6 1
2 7 1
7 2 1
2 8 1
8 9 1
9 2 1
3 5 1
5 10 1
10 11 1
11 12 1
12 11 1
13 11 1
2 14 1
14 2 1
2 15 1
15 16 1
11 16 1
2 16 1
16 17 1
15 18 1
2 19 1
19 20 1
20 21 1
3 15 1
22 2 1
3 23 1
23 25 1
25 2 1
27 20 1
3 20 1
22 28 1
28 2 1
3 29 1
29 2 1
3 13 1
17 6 1
2 31 1
31 2 1
11 6 1
6 13 1
13 6 1
13 18 1
17 18 1
20 17 1
17 32 1
32 2 1
4 11 1
4 20 1
15 34 1
34 2 1
3 35 1
35 18 1
17 36 1
36 4 1
4 21 1
18 13 1
13 37 1
37 26 1
21 26 1
26 38 1
38 26 1
26 39 1
39 20 1
20 40 1
40 20 1
2 41 1
41 2 1
5 42 1
42 11 1
11 3 1
3 17 1
2 43 1
43 44 1
2 45 1
13 44 1
45 2 1
13 20 1
2 24 1
24 2 1
2 46 1
46 2 1
2 39 1
39 38 1
38 39 1
39 18 1
18 3 1
17 26 1
2 47 1
47 2 1
2 48 1
48 49 1
49 50 1
50 2 1
2 22 1
22 17 1
17 5 1
5 11 1
30 13 1
