8 5 55
5 8 53
13 8 31
5 13 30
8 13 30
13 5 27
2 16 22
16 2 21
5 2 17
2 8 16
2 5 15
9 10 15
8 2 15
10 9 14
8 6 12
8 18 12
6 8 11
6 5 11
18 8 11
5 6 10
6 7 10
7 6 8
8 9 7
13 6 6
10 8 5
5 10 5
10 5 5
5 9 5
9 5 5
6 13 5
5 14 5
2 13 5
13 2 5
9 8 4
14 5 4
16 5 4
21 10 4
5 11 3
5 12 3
5 16 3
10 21 3
2 20 3
20 2 3
2 3 2
3 2 2
7 5 2
7 8 2
12 8 2
12 5 2
14 8 2
8 10 2
20 8 2
8 21 2
21 5 2
11 5 2
8 20 2
1 2 1
3 4 1
4 3 1
11 6 1
9 7 1
8 12 1
13 10 1
2 14 1
2 15 1
15 5 1
13 17 1
17 13 1
13 7 1
9 18 1
18 11 1
11 13 1
13 19 1
19 20 1
8 19 1
19 8 1
8 14 1
5 21 1
18 5 1
5 22 1
22 13 1
13 23 1
23 2 1
2 11 1
11 2 1
20 13 1
14 9 1
