2 5 55
5 2 53
2 10 26
10 2 24
2 29 21
2 3 19
29 5 19
5 29 19
29 2 19
3 2 18
15 2 18
5 7 17
7 5 17
2 15 16
5 10 12
29 10 9
16 2 9
10 5 9
10 29 9
10 12 8
5 16 8
12 10 7
2 30 7
33 2 7
10 33 7
30 2 7
12 15 7
2 16 7
15 12 6
5 8 5
8 5 5
29 33 5
16 5 4
2 33 4
5 3 4
33 10 4
14 15 3
15 14 3
25 15 3
16 29 3
3 5 3
10 3 3
3 15 3
2 12 3
12 2 3
33 29 3
3 10 3
5 6 2
6 5 2
10 11 2
11 10 2
16 17 2
21 19 2
15 25 2
26 27 2
5 28 2
28 16 2
16 28 2
28 5 2
29 16 2
30 15 2
15 29 2
29 12 2
15 5 2
1 2 1
3 4 1
4 5 1
7 9 1
9 10 1
10 13 1
13 5 1
5 14 1
14 7 1
7 16 1
17 16 1
17 5 1
5 18 1
18 5 1
2 19 1
19 20 1
20 21 1
19 21 1
19 22 1
22 15 1
15 23 1
23 24 1
24 7 1
7 24 1
24 5 1
5 24 1
24 25 1
15 26 1
27 26 1
27 5 1
29 28 1
28 29 1
7 30 1
30 31 1
31 2 1
15 30 1
12 29 1
2 32 1
32 2 1
29 34 1
34 10 1
10 15 1
33 5 1
2 35 1
35 3 1
3 35 1
35 33 1
33 15 1
29 3 1
15 3 1
10 30 1
12 5 1
29 36 1
36 29 1
16 33 1
33 16 1
16 37 1
37 7 1
7 8 1
8 7 1
33 7 1
5 38 1
