2 9 32
9 2 31
1 2 23
5 6 23
2 1 22
6 5 22
22 2 22
2 22 21
7 14 18
14 7 17
2 28 13
7 21 12
21 7 12
28 2 12
6 25 10
25 6 10
4 7 8
7 5 8
9 15 8
4 19 8
19 4 8
9 14 8
5 7 7
14 9 7
25 5 7
7 4 7
6 7 6
15 9 6
5 25 6
4 2 6
2 7 6
7 2 6
2 29 6
29 2 6
4 5 5
7 6 5
2 20 5
20 2 5
5 4 4
2 10 4
2 13 4
13 2 4
15 2 4
2 4 4
2 5 4
5 2 4
6 4 3
10 2 3
2 15 3
20 7 3
9 22 3
22 9 3
4 6 2
8 9 2
14 5 2
17 4 2
7 9 2
1 3 1
3 4 1
5 8 1
10 1 1
2 11 1
11 2 1
2 12 1
12 2 1
2 14 1
7 15 1
15 16 1
16 2 1
15 4 1
4 17 1
5 17 1
7 18 1
18 7 1
7 1 1
1 4 1
4 20 1
7 20 1
21 20 1
9 1 1
1 9 1
9 7 1
14 8 1
8 7 1
14 15 1
15 14 1
5 23 1
23 6 1
6 20 1
20 24 1
24 25 1
5 9 1
9 4 1
4 26 1
26 4 1
4 27 1
27 4 1
4 14 1
14 27 1
27 14 1
14 6 1
2 21 1
2 25 1
25 4 1
4 22 1
2 30 1
30 2 1
28 8 1
