2 7 88
7 2 84
7 5 38
5 7 37
26 2 29
2 26 27
2 9 22
9 2 20
2 28 13
5 13 12
28 2 12
13 5 11
8 7 10
7 16 10
7 8 9
10 2 9
2 10 8
2 4 8
4 7 8
7 34 8
34 7 8
35 7 7
35 31 7
7 4 6
15 2 6
4 2 6
31 7 6
7 32 6
2 35 6
31 35 6
2 15 5
16 7 5
7 30 5
30 7 5
35 2 5
7 35 5
2 3 4
4 5 4
7 11 4
11 7 4
19 20 4
7 27 4
27 7 4
4 29 4
29 4 4
7 31 4
32 7 4
3 2 3
10 9 3
9 10 3
7 12 3
12 7 3
16 18 3
20 19 3
5 2 3
2 33 3
1 2 2
6 7 2
5 4 2
2 5 2
14 2 2
9 17 2
18 2 2
2 19 2
16 2 2
21 8 2
2 24 2
24 2 2
7 26 2
2 31 2
32 31 2
33 2 2
31 2 2
2 1 1
3 4 1
5 6 1
7 6 1
5 8 1
8 5 1
13 7 1
7 14 1
2 14 1
9 7 1
7 9 1
17 9 1
17 2 1
2 16 1
19 2 1
2 20 1
20 2 1
20 16 1
18 16 1
16 21 1
8 21 1
8 4 1
4 8 1
7 22 1
22 2 1
2 23 1
23 2 1
2 25 1
25 2 1
26 7 1
16 26 1
31 32 1
32 2 1
33 10 1
28 35 1
9 4 1
16 36 1
36 2 1
2 36 1
36 7 1
7 15 1
7 37 1
37 2 1
2 13 1
13 35 1
7 38 1
