23 1 90
1 23 89
1 5 20
1 13 19
5 1 18
13 1 18
1 8 14
8 1 14
12 1 14
1 12 14
5 8 5
8 20 5
25 27 5
20 6 5
8 5 5
1 15 4
9 1 4
23 44 4
44 23 4
20 8 4
1 11 3
11 1 3
15 1 3
1 24 3
24 1 3
27 25 3
27 28 3
1 35 3
6 20 3
8 23 3
6 1 2
10 1 2
13 9 2
1 14 2
14 1 2
15 16 2
17 18 2
18 17 2
16 15 2
5 12 2
12 9 2
1 10 2
23 9 2
25 26 2
26 25 2
28 25 2
6 8 2
8 40 2
40 41 2
41 8 2
43 23 2
20 41 2
41 20 2
20 1 2
47 23 2
23 40 2
40 6 2
6 40 2
40 23 2
23 8 2
1 2 1
2 1 1
1 3 1
3 1 1
1 4 1
4 5 1
5 6 1
1 7 1
7 1 1
8 9 1
9 8 1
1 9 1
9 10 1
8 12 1
12 13 1
9 13 1
14 9 1
9 14 1
16 17 1
17 15 1
15 19 1
19 15 1
20 5 1
1 21 1
21 1 1
1 22 1
22 1 1
10 25 1
28 1 1
1 28 1
28 27 1
25 1 1
1 25 1
25 29 1
29 30 1
30 31 1
31 32 1
32 1 1
5 33 1
33 5 1
9 34 1
34 1 1
35 1 1
35 9 1
35 36 1
36 1 1
23 37 1
37 1 1
1 38 1
38 23 1
15 17 1
17 16 1
15 9 1
9 39 1
39 20 1
40 8 1
5 20 1
1 6 1
8 42 1
42 40 1
41 43 1
23 45 1
45 44 1
23 43 1
44 1 1
13 46 1
46 13 1
13 20 1
20 40 1
40 20 1
1 47 1
23 47 1
6 23 1
23 48 1
48 49 1
49 23 1
23 50 1
50 51 1
51 6 1
9 23 1
23 52 1
52 23 1
23 53 1
53 54 1
54 30 1
30 55 1
55 56 1
56 23 1
1 20 1
1 57 1
57 23 1
1 58 1
58 5 1
5 59 1
59 60 1
60 8 1
23 20 1
20 59 1
59 8 1
8 41 1
