36 19 34
19 36 34
15 19 31
19 15 30
30 29 27
29 30 25
30 31 22
31 30 21
36 30 13
30 36 11
12 13 8
13 12 8
25 15 7
2 36 7
36 2 7
15 13 6
19 24 6
24 19 6
15 25 6
2 4 5
4 2 5
2 8 5
8 2 5
13 15 5
19 25 5
25 19 5
29 36 5
36 29 5
4 5 3
12 15 3
17 15 3
27 15 3
24 36 3
36 24 3
5 2 2
15 16 2
16 15 2
15 17 2
15 12 2
23 15 2
15 27 2
31 29 2
19 30 2
1 2 1
2 3 1
3 2 1
2 6 1
6 4 1
5 7 1
7 2 1
2 7 1
7 5 1
2 9 1
9 4 1
5 4 1
2 10 1
10 11 1
11 12 1
13 14 1
14 13 1
15 18 1
18 19 1
19 20 1
20 19 1
19 21 1
21 16 1
16 17 1
13 22 1
22 15 1
15 23 1
23 2 1
2 15 1
15 2 1
2 23 1
15 26 1
26 27 1
15 28 1
28 29 1
29 31 1
29 25 1
25 24 1
24 25 1
15 32 1
32 23 1
15 33 1
33 34 1
34 35 1
35 36 1
36 35 1
35 37 1
37 38 1
38 39 1
39 36 1
36 40 1
40 36 1
36 41 1
41 36 1
36 42 1
42 43 1
43 36 1
36 44 1
44 45 1
45 46 1
46 36 1
36 47 1
47 48 1
48 19 1
19 49 1
49 19 1
19 2 1
2 50 1
50 51 1
51 15 1
15 50 1
50 30 1
30 50 1
50 31 1
30 19 1
30 25 1
15 24 1
24 15 1
36 52 1
52 36 1
29 53 1
53 54 1
54 30 1
29 55 1
55 30 1
30 49 1
49 15 1
25 56 1
56 36 1
31 36 1
30 57 1
57 58 1
58 59 1
59 60 1
60 30 1
30 61 1
61 30 1
30 62 1
62 19 1
19 62 1
62 30 1
29 63 1
63 64 1
64 65 1
65 66 1
66 36 1
36 67 1
67 36 1
36 68 1
68 6 1
6 69 1
69 70 1
70 71 1
71 72 1
72 73 1
