10 9 36
9 10 35
10 26 14
26 9 14
9 26 10
26 10 9
18 26 6
26 18 6
10 11 5
9 11 5
11 9 5
33 10 5
11 12 4
11 10 4
8 10 3
12 13 3
10 18 3
18 10 3
9 12 3
18 9 3
28 26 3
10 28 3
10 33 3
33 12 3
12 33 3
8 9 2
10 8 2
9 8 2
15 10 2
16 10 2
12 11 2
13 12 2
22 10 2
13 11 2
9 14 2
9 18 2
9 28 2
9 29 2
26 28 2
28 9 2
31 9 2
33 34 2
34 33 2
21 33 2
28 18 2
26 35 2
1 2 1
2 3 1
3 4 1
4 5 1
5 6 1
6 7 1
7 1 1
1 8 1
13 14 1
14 15 1
9 16 1
11 13 1
13 9 1
9 17 1
17 11 1
18 19 1
19 9 1
9 20 1
20 9 1
10 19 1
19 10 1
10 20 1
20 21 1
21 10 1
9 21 1
21 22 1
10 22 1
10 21 1
21 13 1
12 14 1
14 13 1
13 15 1
14 9 1
14 10 1
11 23 1
23 10 1
9 13 1
9 24 1
24 9 1
12 9 1
12 10 1
10 25 1
25 10 1
9 27 1
27 26 1
29 26 1
29 10 1
9 30 1
30 10 1
10 16 1
28 10 1
28 31 1
10 31 1
9 32 1
32 28 1
26 33 1
12 21 1
33 28 1
28 33 1
33 21 1
34 10 1
33 9 1
9 33 1
10 34 1
18 28 1
35 26 1
35 9 1
26 36 1
36 18 1
10 37 1
37 26 1
26 11 1
11 34 1
34 9 1
