31 29 39
29 31 37
29 33 31
33 29 30
2 31 11
26 33 10
31 35 9
33 26 9
29 2 8
31 2 8
2 29 7
35 31 7
58 29 7
29 58 6
26 27 5
27 26 4
29 26 4
33 43 4
43 33 4
26 45 4
45 26 4
2 30 3
20 29 3
33 31 3
31 33 3
26 31 3
31 58 3
23 2 2
30 3 2
35 2 2
31 36 2
29 20 2
2 17 2
17 2 2
2 13 2
33 44 2
40 26 2
27 33 2
9 26 2
58 31 2
59 27 2
33 59 2
59 34 2
1 2 1
2 3 1
3 4 1
4 5 1
5 6 1
6 7 1
7 8 1
8 9 1
9 10 1
10 11 1
11 12 1
12 13 1
13 6 1
6 11 1
11 6 1
6 14 1
14 15 1
15 16 1
16 17 1
17 18 1
18 19 1
19 20 1
20 21 1
21 22 1
22 23 1
2 24 1
24 2 1
2 11 1
11 25 1
25 26 1
27 28 1
28 29 1
3 31 1
31 32 1
32 2 1
2 20 1
26 34 1
34 35 1
35 33 1
36 31 1
31 20 1
20 2 1
31 37 1
37 26 1
26 37 1
37 31 1
29 38 1
38 31 1
33 2 1
2 9 1
9 2 1
13 2 1
13 30 1
30 2 1
2 39 1
39 20 1
20 33 1
33 40 1
40 41 1
41 31 1
3 30 1
30 9 1
9 42 1
42 29 1
44 29 1
26 46 1
46 26 1
26 47 1
47 26 1
36 40 1
26 40 1
44 43 1
43 44 1
44 36 1
36 48 1
48 29 1
29 36 1
36 29 1
26 49 1
49 33 1
29 50 1
50 51 1
51 31 1
33 52 1
52 29 1
29 49 1
49 23 1
30 27 1
33 27 1
27 30 1
30 33 1
33 53 1
53 2 1
31 34 1
34 2 1
2 54 1
54 29 1
31 55 1
55 56 1
56 9 1
26 9 1
29 57 1
57 29 1
29 59 1
27 59 1
59 33 1
34 59 1
59 26 1
26 59 1
