15 12 34
12 15 31
11 12 30
12 11 28
12 17 14
17 12 13
12 16 10
11 15 8
15 11 8
15 16 8
16 12 8
18 12 6
16 15 6
3 4 5
11 14 5
12 18 5
12 20 5
17 18 4
18 17 4
20 15 4
14 12 4
4 5 3
14 11 3
16 18 3
12 3 3
11 13 3
13 11 3
12 14 3
12 5 2
4 7 2
20 12 2
15 13 2
13 15 2
17 21 2
23 11 2
5 12 2
14 15 2
1 2 1
2 3 1
5 6 1
6 7 1
7 8 1
8 9 1
9 10 1
10 3 1
3 5 1
5 1 1
1 5 1
5 3 1
5 11 1
5 13 1
13 14 1
16 11 1
18 16 1
18 19 1
19 12 1
7 12 1
17 3 1
3 10 1
10 9 1
9 15 1
16 17 1
15 20 1
11 17 1
21 17 1
21 11 1
12 22 1
22 11 1
17 23 1
11 23 1
7 5 1
14 2 1
2 12 1
12 13 1
13 12 1
5 14 1
15 24 1
24 5 1
