15 4 62
4 15 59
29 4 59
4 29 56
15 16 29
16 15 28
18 17 19
17 4 17
17 18 16
3 4 15
4 3 14
27 4 14
4 17 13
4 27 12
4 30 11
4 18 9
30 4 9
37 4 8
4 20 7
20 4 7
4 37 7
4 16 5
17 35 5
35 17 5
4 6 4
6 4 4
16 4 4
18 4 4
12 4 3
4 12 3
20 16 3
16 20 3
24 4 3
4 25 3
29 30 3
4 35 3
4 39 3
39 4 3
30 29 3
4 41 3
19 20 3
4 23 2
4 24 2
25 4 2
18 27 2
35 18 2
18 35 2
35 4 2
41 4 2
16 29 2
20 19 2
1 2 1
2 3 1
4 5 1
5 4 1
4 7 1
7 8 1
8 4 1
4 9 1
9 10 1
10 11 1
11 12 1
12 13 1
13 4 1
4 14 1
14 15 1
18 15 1
16 19 1
19 4 1
4 21 1
21 15 1
4 22 1
22 4 1
23 4 1
23 24 1
25 26 1
26 18 1
4 28 1
28 29 1
30 31 1
31 4 1
4 32 1
32 4 1
4 33 1
33 34 1
34 4 1
17 36 1
36 17 1
4 38 1
38 20 1
4 40 1
40 4 1
29 41 1
29 16 1
41 19 1
20 29 1
30 42 1
42 4 1
20 37 1
41 29 1
4 43 1
43 17 1
35 44 1
44 15 1
4 45 1
