6 10 22
10 6 21
18 19 12
2 18 11
19 18 11
3 2 10
18 2 10
2 3 9
10 14 9
14 10 9
10 2 8
5 6 6
8 10 6
17 10 6
2 19 6
8 6 6
10 8 5
19 2 5
29 30 5
6 5 5
7 6 4
10 17 4
2 10 4
22 19 4
19 22 4
23 10 4
6 8 4
30 29 4
10 23 3
6 31 3
31 6 3
4 5 2
6 7 2
2 14 2
12 18 2
6 23 2
5 7 2
32 6 2
6 33 2
1 2 1
2 4 1
6 4 1
4 7 1
6 3 1
3 8 1
8 9 1
9 8 1
10 11 1
11 10 1
10 12 1
12 13 1
13 14 1
14 15 1
15 2 1
14 16 1
16 10 1
14 17 1
17 14 1
14 2 1
2 17 1
18 15 1
15 12 1
18 12 1
18 20 1
20 18 1
18 21 1
21 2 1
2 22 1
22 21 1
21 18 1
19 6 1
23 6 1
19 24 1
24 8 1
2 25 1
25 26 1
26 2 1
2 21 1
21 3 1
2 27 1
27 8 1
8 28 1
28 8 1
10 29 1
30 18 1
18 17 1
10 7 1
7 5 1
7 4 1
6 32 1
33 32 1
32 33 1
33 6 1
6 34 1
34 32 1
33 35 1
35 18 1
18 10 1
6 35 1
35 36 1
