1 10 27
10 1 25
4 1 22
1 4 19
4 5 11
5 4 11
1 26 11
26 1 11
1 13 9
13 1 7
1 23 5
23 1 5
1 28 5
28 1 5
4 6 4
6 4 3
9 1 3
1 16 3
16 1 3
26 15 3
15 26 3
1 9 2
1 12 2
12 1 2
10 13 2
14 15 2
19 20 2
20 19 2
15 1 2
1 5 2
1 24 2
13 10 2
1 19 2
19 1 2
28 29 2
29 28 2
1 2 1
2 3 1
3 1 1
6 7 1
7 4 1
4 8 1
8 9 1
10 11 1
11 10 1
13 4 1
10 4 1
5 14 1
15 16 1
16 7 1
7 17 1
17 18 1
18 19 1
19 9 1
9 21 1
21 9 1
9 22 1
22 1 1
1 14 1
5 1 1
24 1 1
24 17 1
17 23 1
23 4 1
1 25 1
25 1 1
10 7 1
7 1 1
1 15 1
13 27 1
27 26 1
26 4 1
10 17 1
17 1 1
1 18 1
18 17 1
17 10 1
19 10 1
10 19 1
1 30 1
