20 11 75
11 20 72
17 20 21
20 17 17
11 17 16
17 11 14
19 20 14
20 19 13
11 12 10
11 14 10
19 11 10
20 12 10
12 11 10
22 20 9
14 11 9
11 19 9
13 11 8
12 20 8
20 22 8
17 22 8
11 13 7
11 15 6
14 17 6
12 17 5
17 12 5
22 17 5
14 20 5
2 6 4
15 11 4
22 12 4
20 14 4
19 17 4
22 19 4
4 3 3
4 2 3
6 4 3
8 9 3
12 13 3
15 12 3
11 9 3
16 11 3
17 19 3
12 22 3
12 19 3
19 14 3
19 22 3
11 22 3
17 14 3
12 8 3
3 4 2
6 2 2
4 6 2
9 8 2
9 10 2
14 15 2
16 15 2
13 14 2
9 11 2
12 16 2
8 20 2
13 19 2
19 12 2
14 19 2
17 26 2
14 35 2
20 8 2
12 14 2
25 19 2
22 11 2
11 39 2
8 12 2
1 2 1
2 3 1
3 2 1
2 4 1
3 5 1
5 4 1
6 7 1
7 4 1
2 7 1
7 2 1
2 8 1
10 11 1
15 14 1
15 16 1
14 13 1
9 14 1
14 9 1
9 17 1
17 10 1
10 12 1
11 10 1
10 13 1
14 18 1
18 19 1
20 10 1
10 20 1
20 9 1
10 8 1
20 21 1
21 20 1
20 13 1
11 23 1
23 14 1
19 15 1
15 17 1
19 16 1
13 12 1
19 24 1
24 19 1
20 25 1
25 20 1
19 9 1
9 19 1
26 17 1
26 16 1
15 27 1
27 26 1
26 27 1
27 17 1
11 8 1
8 28 1
28 20 1
20 29 1
29 30 1
30 11 1
11 31 1
31 32 1
32 33 1
33 34 1
34 19 1
35 11 1
8 11 1
19 36 1
36 11 1
20 37 1
37 14 1
15 20 1
20 15 1
19 25 1
22 25 1
22 14 1
14 12 1
20 38 1
38 20 1
39 40 1
40 11 1
39 41 1
41 11 1
11 42 1
42 8 1
8 14 1
14 22 1
8 35 1
35 14 1
35 9 1
9 35 1
35 20 1
