10 8 243
8 10 242
9 8 19
10 9 18
8 9 17
9 10 14
10 48 14
48 10 14
8 33 11
8 17 9
33 8 9
17 10 8
23 8 7
48 8 6
8 25 5
10 21 5
33 34 5
10 17 4
34 33 4
8 48 4
33 10 4
17 21 3
21 8 3
23 25 3
25 23 3
8 23 3
21 17 3
10 33 3
9 11 2
11 9 2
17 8 2
17 22 2
10 23 2
25 10 2
29 8 2
10 29 2
33 35 2
35 8 2
21 27 2
17 33 2
52 34 2
1 2 1
2 3 1
3 4 1
4 5 1
5 6 1
6 7 1
7 8 1
8 12 1
12 8 1
9 13 1
13 14 1
14 9 1
9 15 1
15 16 1
16 9 1
9 17 1
9 18 1
18 10 1
10 19 1
19 10 1
8 20 1
20 10 1
22 8 1
8 24 1
24 10 1
10 25 1
25 26 1
26 10 1
21 10 1
21 22 1
22 17 1
10 27 1
27 10 1
8 28 1
28 8 1
8 29 1
8 30 1
30 23 1
25 8 1
8 31 1
31 8 1
17 23 1
25 29 1
10 32 1
32 10 1
23 10 1
29 23 1
25 21 1
27 17 1
8 21 1
27 8 1
22 10 1
8 36 1
36 10 1
8 37 1
37 8 1
29 10 1
17 38 1
38 8 1
8 39 1
39 8 1
8 40 1
40 8 1
8 41 1
41 8 1
10 42 1
42 8 1
8 43 1
43 8 1
8 44 1
44 10 1
8 45 1
45 46 1
46 8 1
10 47 1
47 8 1
34 48 1
48 49 1
49 50 1
50 48 1
8 51 1
51 48 1
33 48 1
10 52 1
34 52 1
48 33 1
34 10 1
