4 5 28
5 4 23
6 4 13
29 5 12
5 29 12
8 6 11
6 9 11
6 8 10
9 6 10
4 6 8
10 11 8
24 5 8
5 24 8
8 4 7
4 10 7
11 10 6
10 4 6
12 13 5
13 12 5
5 8 5
8 5 4
4 8 4
18 10 4
4 11 4
11 4 4
5 6 4
6 14 3
11 17 3
10 18 3
11 5 3
5 11 3
5 26 3
26 5 3
24 25 3
5 12 2
14 6 2
12 4 2
15 8 2
17 11 2
11 18 2
18 11 2
10 19 2
19 10 2
4 13 2
28 29 2
20 5 2
25 24 2
1 2 1
2 3 1
3 4 1
6 7 1
7 8 1
9 10 1
11 8 1
12 6 1
14 12 1
4 12 1
5 15 1
8 15 1
4 16 1
16 5 1
8 16 1
16 8 1
17 18 1
5 10 1
10 6 1
10 20 1
20 21 1
21 22 1
22 4 1
13 4 1
4 23 1
23 24 1
24 7 1
7 25 1
25 7 1
7 24 1
24 4 1
4 19 1
19 5 1
13 6 1
6 5 1
4 20 1
20 6 1
4 27 1
27 28 1
29 30 1
30 29 1
29 28 1
28 20 1
5 20 1
12 24 1
24 30 1
30 24 1
24 28 1
29 31 1
31 24 1
25 28 1
