3 4 44
4 3 41
11 3 8
3 11 8
4 5 7
11 8 7
8 11 7
28 3 7
5 4 6
11 4 6
41 3 6
4 11 5
3 19 5
11 26 5
4 32 5
32 4 5
3 40 5
4 8 4
8 4 4
4 14 4
14 4 4
18 3 4
19 3 4
26 11 4
3 28 4
3 39 4
39 3 4
40 41 4
3 41 4
20 4 3
41 40 3
40 3 3
9 8 2
11 12 2
12 11 2
3 18 2
4 20 2
4 21 2
21 4 2
21 3 2
3 21 2
23 3 2
24 23 2
23 24 2
3 23 2
25 11 2
33 23 2
23 33 2
34 23 2
23 34 2
1 2 1
2 3 1
5 6 1
6 7 1
7 4 1
8 9 1
4 9 1
8 10 1
10 11 1
11 13 1
13 11 1
3 15 1
15 3 1
3 16 1
16 17 1
17 18 1
19 18 1
3 20 1
4 22 1
22 23 1
23 4 1
4 23 1
4 24 1
24 3 1
4 25 1
11 25 1
26 25 1
25 23 1
23 11 1
11 27 1
27 3 1
4 28 1
3 29 1
29 28 1
3 30 1
30 3 1
3 31 1
31 4 1
3 33 1
33 34 1
34 4 1
23 35 1
35 23 1
23 28 1
28 36 1
36 28 1
28 37 1
37 3 1
3 37 1
37 28 1
4 38 1
38 3 1
3 42 1
42 41 1
40 43 1
43 3 1
