13 6 24
6 13 21
7 9 20
9 7 17
6 3 14
23 7 12
7 23 11
6 7 10
7 6 10
3 6 8
29 6 8
17 6 7
3 13 7
6 29 7
34 6 7
4 3 6
6 22 6
22 6 6
6 14 6
14 24 6
5 6 5
9 6 5
6 5 5
6 17 5
14 6 5
13 22 5
24 14 5
6 34 5
34 29 5
29 34 5
3 4 4
13 3 4
9 12 3
14 13 3
24 6 3
30 14 3
22 13 3
3 11 2
11 3 2
12 9 2
13 14 2
6 20 2
20 6 2
6 23 2
6 24 2
3 17 2
17 28 2
14 30 2
13 29 2
29 13 2
6 4 2
22 3 2
9 23 2
23 9 2
1 2 1
2 3 1
3 5 1
6 8 1
8 7 1
7 5 1
5 7 1
6 9 1
5 10 1
10 5 1
5 9 1
11 6 1
6 11 1
3 9 1
12 7 1
6 15 1
15 16 1
16 9 1
7 15 1
15 9 1
17 18 1
18 17 1
6 19 1
19 6 1
6 21 1
21 6 1
23 13 1
14 25 1
25 26 1
26 27 1
27 14 1
14 17 1
17 13 1
13 17 1
28 17 1
28 29 1
3 29 1
29 30 1
6 31 1
31 6 1
13 32 1
32 13 1
24 13 1
3 33 1
33 7 1
9 13 1
3 34 1
3 35 1
35 36 1
36 6 1
6 36 1
36 17 1
17 3 1
3 14 1
24 3 1
3 24 1
13 24 1
22 29 1
29 3 1
13 35 1
35 13 1
13 4 1
4 7 1
9 34 1
6 37 1
37 6 1
7 38 1
38 7 1
7 35 1
35 7 1
7 39 1
39 29 1
29 39 1
39 3 1
3 39 1
39 6 1
6 39 1
39 34 1
34 35 1
35 3 1
3 40 1
40 3 1
3 22 1
