10 3 56
3 10 55
3 12 21
12 3 18
12 11 11
3 22 11
22 3 11
11 12 10
8 3 9
10 34 9
34 10 9
10 15 8
15 10 7
3 8 6
3 14 5
3 4 4
14 10 4
15 3 4
14 3 4
3 15 4
23 24 4
10 27 4
4 3 3
10 8 3
11 13 3
13 11 3
24 23 3
27 10 3
12 10 3
3 32 3
1 2 2
2 1 2
6 3 2
17 15 2
18 3 2
3 20 2
20 8 2
8 10 2
15 14 2
23 2 2
2 23 2
12 27 2
3 29 2
11 30 2
30 11 2
32 3 2
1 3 1
3 5 1
5 6 1
3 7 1
7 8 1
8 9 1
9 8 1
4 8 1
10 4 1
4 10 1
8 11 1
11 3 1
10 6 1
6 7 1
7 15 1
15 16 1
16 17 1
15 17 1
15 18 1
3 18 1
3 19 1
19 3 1
20 21 1
21 20 1
8 20 1
14 15 1
3 23 1
24 3 1
20 25 1
25 3 1
3 26 1
26 3 1
27 28 1
28 12 1
27 3 1
10 12 1
27 12 1
29 10 1
29 3 1
11 31 1
31 11 1
11 14 1
10 14 1
3 6 1
32 21 1
21 33 1
33 10 1
10 13 1
13 21 1
21 13 1
13 35 1
35 3 1
10 36 1
