12 2 170
2 12 168
2 21 78
21 2 77
12 21 52
21 12 52
26 2 25
6 2 24
2 6 23
2 26 23
6 7 15
7 6 15
2 9 15
9 2 15
2 32 10
32 2 8
9 10 7
10 9 7
20 21 7
21 20 7
2 15 6
15 2 6
9 6 5
12 20 5
6 9 5
32 12 5
2 19 4
20 2 4
20 12 4
19 2 3
2 20 3
21 29 3
29 21 3
31 32 3
32 6 3
6 32 3
32 9 3
9 32 3
12 6 2
17 2 2
2 7 2
7 12 2
12 22 2
22 12 2
27 25 2
25 27 2
32 31 2
12 32 2
1 2 1
2 3 1
3 4 1
4 2 1
2 5 1
5 2 1
2 8 1
8 2 1
2 10 1
9 11 1
11 9 1
10 2 1
2 13 1
13 12 1
6 12 1
2 14 1
14 2 1
2 16 1
16 17 1
7 18 1
18 7 1
19 12 1
2 23 1
23 15 1
2 17 1
15 6 1
21 9 1
2 24 1
24 7 1
7 2 1
6 25 1
25 26 1
12 27 1
27 26 1
21 28 1
28 21 1
2 30 1
30 21 1
12 31 1
9 33 1
33 2 1
21 34 1
34 2 1
