22 25 43
25 22 43
16 11 24
11 16 24
25 24 24
24 25 23
5 3 17
16 25 17
25 16 17
3 5 14
3 22 14
11 7 14
22 16 13
34 9 13
7 11 13
11 19 12
9 34 12
9 11 12
25 9 12
17 3 11
22 3 11
11 9 11
3 9 10
9 7 10
45 16 10
16 45 10
9 25 10
3 17 9
16 22 9
3 4 8
3 6 8
6 3 8
16 3 8
19 11 8
3 25 8
4 3 7
9 3 7
4 11 7
26 25 7
25 26 7
11 22 7
7 9 7
34 25 7
22 4 6
3 16 6
25 34 6
3 34 6
34 3 6
11 4 5
4 25 5
25 4 5
4 22 5
3 11 5
25 23 5
11 3 5
25 11 5
23 25 5
22 34 5
34 22 5
7 19 5
7 3 4
7 6 4
10 11 4
11 10 4
3 18 4
1 9 4
9 1 4
9 19 4
23 19 4
19 23 4
19 34 4
16 34 4
34 16 4
34 11 4
7 25 4
9 4 4
19 7 4
19 25 4
6 11 4
2 3 3
3 7 3
15 16 3
18 3 3
22 23 3
4 24 3
24 4 3
6 7 3
11 25 3
4 34 3
25 3 3
25 13 3
3 2 3
4 9 3
25 19 3
26 23 3
23 26 3
25 7 3
11 6 3
6 9 2
5 7 2
16 15 2
22 11 2
7 4 2
4 32 2
9 33 2
33 9 2
23 3 2
23 11 2
34 19 2
25 5 2
5 25 2
34 4 2
3 42 2
42 3 2
44 3 2
19 5 2
19 16 2
1 2 1
4 5 1
3 8 1
8 7 1
9 6 1
7 5 1
4 10 1
10 12 1
12 10 1
10 4 1
4 13 1
13 11 1
11 14 1
14 15 1
16 17 1
18 17 1
3 19 1
19 20 1
20 21 1
21 3 1
23 24 1
24 26 1
26 4 1
24 27 1
27 22 1
4 1 1
1 4 1
11 28 1
28 22 1
16 29 1
29 30 1
30 5 1
5 31 1
31 3 1
16 4 1
32 4 1
32 3 1
19 9 1
22 9 1
25 35 1
35 19 1
23 34 1
19 3 1
11 34 1
16 2 1
2 36 1
36 34 1
22 37 1
37 22 1
25 2 1
5 38 1
38 5 1
5 39 1
39 40 1
40 5 1
11 41 1
41 11 1
13 3 1
2 5 1
5 43 1
43 3 1
2 44 1
4 7 1
4 2 1
2 25 1
13 4 1
3 44 1
3 45 1
45 11 1
19 46 1
46 47 1
47 19 1
5 26 1
11 48 1
48 19 1
19 49 1
49 11 1
7 50 1
50 51 1
51 50 1
50 19 1
19 51 1
51 52 1
52 25 1
34 7 1
16 23 1
23 9 1
11 23 1
7 23 1
13 25 1
11 53 1
53 7 1
19 18 1
7 13 1
13 9 1
9 54 1
54 55 1
55 6 1
6 56 1
56 26 1
26 18 1
18 57 1
57 5 1
3 23 1
26 57 1
57 34 1
22 6 1
25 58 1
58 46 1
46 26 1
26 59 1
59 60 1
60 11 1
9 61 1
61 62 1
62 63 1
63 64 1
64 65 1
65 66 1
66 67 1
67 58 1
58 68 1
68 17 1
18 69 1
69 3 1
17 70 1
70 3 1
3 71 1
71 5 1
3 1 1
