2 3 92
3 2 84
11 3 35
3 11 34
3 12 19
12 3 16
5 3 13
7 3 12
3 5 10
3 7 10
3 18 10
18 3 10
2 15 7
3 16 7
3 10 6
11 2 6
15 2 6
16 3 6
10 11 4
12 2 4
10 3 4
3 19 4
3 23 4
3 4 3
3 8 3
2 11 3
2 5 3
3 15 3
19 3 3
20 2 3
23 3 3
26 3 3
4 3 2
8 3 2
2 12 2
15 11 2
11 10 2
15 3 2
3 20 2
2 20 2
1 2 1
4 5 1
3 6 1
6 7 1
8 7 1
3 9 1
9 2 1
10 2 1
5 2 1
3 13 1
13 3 1
3 14 1
14 3 1
2 10 1
16 2 1
3 17 1
17 3 1
20 3 1
19 2 1
3 21 1
21 2 1
3 22 1
22 3 1
3 24 1
24 25 1
25 24 1
24 3 1
23 2 1
12 26 1
3 27 1
27 3 1
3 26 1
2 26 1
