1 39 27
39 1 25
6 1 21
1 6 19
1 26 18
26 1 18
22 1 15
1 22 14
2 1 12
49 1 12
1 2 11
1 38 11
38 1 10
1 49 10
41 1 7
10 1 6
11 1 6
26 28 6
1 55 6
1 10 5
25 1 5
1 25 5
28 26 5
1 34 5
34 1 5
1 41 5
55 1 5
4 2 4
4 5 4
10 4 4
1 11 4
1 32 4
32 1 4
1 42 4
42 1 4
48 1 4
1 4 3
2 4 3
5 4 3
1 5 3
8 10 3
4 10 3
10 6 3
6 10 3
1 13 3
13 1 3
1 19 3
19 1 3
1 20 3
27 26 3
26 27 3
35 1 3
39 41 3
1 43 3
45 1 3
1 48 3
1 56 3
4 1 2
5 6 2
10 8 2
5 10 2
1 14 2
15 1 2
1 17 2
17 1 2
20 1 2
25 22 2
26 29 2
29 26 2
1 35 2
41 39 2
43 1 2
1 50 2
50 1 2
1 53 2
53 49 2
49 39 2
39 49 2
56 1 2
56 41 2
1 3 1
3 1 1
5 2 1
2 6 1
1 7 1
7 8 1
8 9 1
9 8 1
8 1 1
1 8 1
6 12 1
12 5 1
10 5 1
5 1 1
10 11 1
11 10 1
14 15 1
1 15 1
14 1 1
1 16 1
16 1 1
1 18 1
18 1 1
19 21 1
21 19 1
1 23 1
23 1 1
1 24 1
24 1 1
20 25 1
22 25 1
1 27 1
27 25 1
25 26 1
28 1 1
26 22 1
22 26 1
26 30 1
30 26 1
1 31 1
31 1 1
1 33 1
33 1 1
1 36 1
36 35 1
1 37 1
37 1 1
38 40 1
40 1 1
41 11 1
1 44 1
44 1 1
1 45 1
1 46 1
46 45 1
1 47 1
47 45 1
43 48 1
1 51 1
51 1 1
1 52 1
52 1 1
1 54 1
54 1 1
55 11 1
11 39 1
39 11 1
39 56 1
1 57 1
57 58 1
