54 24 3
28 9 2
24 54 2
1 2 1
2 3 1
3 4 1
4 5 1
5 6 1
6 7 1
7 8 1
8 9 1
9 10 1
10 4 1
4 11 1
11 12 1
12 13 1
13 14 1
14 6 1
6 4 1
4 15 1
15 16 1
16 17 1
17 18 1
18 19 1
19 20 1
20 21 1
21 22 1
22 3 1
3 23 1
23 24 1
24 25 1
25 26 1
26 27 1
27 28 1
9 3 1
3 29 1
29 30 1
30 31 1
31 9 1
9 28 1
9 32 1
32 22 1
22 33 1
33 34 1
34 35 1
35 22 1
22 36 1
36 10 1
10 37 1
37 38 1
38 39 1
39 40 1
40 32 1
32 41 1
41 42 1
42 38 1
38 43 1
43 9 1
9 44 1
44 28 1
28 45 1
45 46 1
46 47 1
47 48 1
48 49 1
49 50 1
50 51 1
51 52 1
52 24 1
24 53 1
53 24 1
24 55 1
55 54 1
24 56 1
56 57 1
