11 5 173
5 11 168
42 5 48
5 42 46
5 14 29
12 11 25
14 5 25
11 12 22
13 5 18
5 12 17
5 13 17
12 5 15
16 5 15
59 5 14
5 59 14
10 5 13
5 68 13
68 5 13
5 4 9
5 74 9
74 5 9
5 16 8
14 11 8
5 10 8
4 5 7
11 23 7
23 11 7
84 11 7
5 38 6
56 5 6
8 7 5
38 5 5
5 46 5
46 5 5
44 5 5
5 56 5
11 14 5
5 84 5
11 84 5
5 7 4
7 8 4
20 5 4
5 20 4
55 54 4
5 57 4
5 70 4
70 5 4
5 44 4
7 5 3
5 26 3
16 14 3
44 21 3
47 5 3
14 16 3
54 55 3
57 5 3
42 10 3
11 64 3
64 11 3
11 16 3
84 5 3
5 8 2
14 15 2
15 16 2
21 16 2
11 4 2
26 5 2
28 5 2
5 28 2
4 11 2
11 37 2
21 42 2
42 44 2
5 47 2
5 50 2
50 11 2
51 5 2
5 52 2
52 5 2
54 44 2
44 54 2
10 42 2
60 42 2
48 18 2
63 11 2
18 48 2
44 55 2
11 44 2
5 37 2
1 2 1
2 3 1
3 4 1
4 6 1
6 5 1
8 5 1
7 9 1
9 10 1
10 11 1
11 13 1
5 17 1
17 18 1
18 19 1
19 20 1
20 16 1
5 21 1
16 21 1
5 9 1
9 22 1
22 12 1
23 5 1
5 23 1
4 24 1
24 25 1
25 10 1
26 4 1
4 27 1
27 16 1
16 19 1
19 28 1
28 29 1
29 5 1
11 30 1
30 5 1
5 31 1
31 5 1
4 28 1
28 11 1
5 32 1
32 33 1
33 16 1
5 34 1
34 35 1
35 34 1
34 36 1
36 34 1
34 5 1
37 11 1
38 39 1
39 5 1
5 40 1
40 38 1
38 41 1
41 4 1
4 42 1
5 43 1
43 44 1
21 44 1
44 45 1
45 42 1
5 48 1
48 47 1
5 49 1
49 5 1
5 36 1
36 14 1
11 51 1
5 51 1
5 53 1
53 54 1
5 54 1
54 56 1
57 10 1
10 58 1
58 59 1
5 60 1
42 60 1
42 4 1
4 48 1
18 61 1
61 11 1
11 62 1
62 63 1
11 63 1
5 65 1
65 11 1
5 66 1
66 5 1
7 67 1
67 19 1
19 10 1
5 69 1
69 5 1
5 71 1
71 5 1
5 72 1
72 42 1
5 73 1
73 5 1
11 18 1
48 5 1
5 18 1
18 10 1
54 75 1
75 76 1
76 44 1
54 5 1
16 11 1
5 77 1
77 78 1
78 11 1
11 28 1
28 79 1
79 11 1
11 80 1
80 5 1
54 81 1
81 5 1
44 11 1
11 54 1
55 44 1
37 82 1
82 5 1
37 5 1
37 83 1
83 11 1
11 10 1
59 85 1
