3 8 129
8 3 129
3 29 56
29 3 55
28 29 38
29 28 36
3 28 32
28 3 31
12 3 17
3 12 16
3 4 15
13 3 15
3 13 15
11 3 14
4 3 13
3 6 12
3 11 11
29 8 11
6 5 10
6 3 10
5 6 8
22 3 8
3 22 8
33 3 8
8 29 8
5 3 7
3 5 7
4 6 7
3 33 7
8 28 7
4 5 5
5 4 5
9 3 5
3 9 5
13 11 5
27 3 5
28 8 5
7 3 4
6 4 4
3 31 4
31 3 4
28 31 4
31 28 4
4 10 3
10 4 3
13 12 3
8 12 3
3 21 3
11 22 3
24 3 3
3 24 3
30 11 3
3 27 3
6 7 2
3 7 2
11 12 2
11 13 2
3 14 2
14 3 2
15 13 2
14 13 2
13 17 2
17 3 2
6 8 2
12 8 2
21 6 2
21 19 2
19 21 2
21 3 2
22 11 2
24 4 2
3 26 2
26 3 2
8 27 2
28 27 2
12 30 2
4 29 2
29 4 2
4 28 2
28 4 2
29 27 2
27 8 2
1 2 1
2 3 1
5 7 1
7 4 1
8 9 1
9 8 1
4 8 1
12 13 1
3 15 1
13 14 1
12 11 1
3 16 1
16 13 1
17 15 1
3 17 1
3 18 1
18 3 1
5 8 1
3 19 1
19 6 1
8 6 1
8 20 1
20 21 1
6 21 1
6 22 1
22 13 1
22 14 1
3 23 1
23 24 1
24 5 1
5 24 1
4 24 1
4 25 1
25 23 1
23 3 1
26 8 1
8 26 1
27 28 1
27 29 1
21 4 1
4 21 1
21 28 1
29 30 1
30 13 1
30 4 1
4 30 1
30 14 1
14 30 1
11 30 1
3 32 1
32 29 1
29 13 1
13 22 1
22 29 1
4 13 1
11 4 1
28 33 1
7 29 1
29 7 1
29 34 1
34 29 1
28 5 1
6 29 1
12 28 1
8 4 1
5 11 1
