3 2 147
2 3 139
2 8 57
8 2 57
14 3 45
3 14 38
2 14 27
2 5 26
5 2 26
14 2 23
15 2 15
24 3 13
3 24 13
2 15 12
14 15 10
15 14 10
3 15 10
2 4 9
4 2 9
15 3 9
3 33 9
33 3 9
3 12 7
12 3 7
34 36 6
2 12 5
12 2 4
31 12 4
33 2 4
31 33 4
36 34 4
2 13 3
24 14 3
32 31 3
12 33 3
12 31 3
36 32 3
34 37 3
6 7 2
10 3 2
3 11 2
11 3 2
3 7 2
3 23 2
23 3 2
14 24 2
14 26 2
26 14 2
8 29 2
29 8 2
31 32 2
2 33 2
33 12 2
12 34 2
34 35 2
2 36 2
33 31 2
33 36 2
32 34 2
33 34 2
34 38 2
37 34 2
2 38 2
3 38 2
38 3 2
1 2 1
2 6 1
7 6 1
7 2 1
2 9 1
9 10 1
13 14 1
7 14 1
14 16 1
16 14 1
2 17 1
17 15 1
2 18 1
18 8 1
8 7 1
7 8 1
8 19 1
19 15 1
15 20 1
20 3 1
8 14 1
3 21 1
21 8 1
8 15 1
3 8 1
8 21 1
21 3 1
3 22 1
22 3 1
7 15 1
15 24 1
2 24 1
24 2 1
2 25 1
25 3 1
13 2 1
14 27 1
27 10 1
10 27 1
27 28 1
28 8 1
2 30 1
30 2 1
2 31 1
31 2 1
2 32 1
12 32 1
32 2 1
35 31 1
31 19 1
19 31 1
36 31 1
36 33 1
36 2 1
36 12 1
12 36 1
32 12 1
33 32 1
37 33 1
34 31 1
31 34 1
38 12 1
12 38 1
38 33 1
38 34 1
35 34 1
34 12 1
34 3 1
38 24 1
24 34 1
32 33 1
38 2 1
2 39 1
39 40 1
40 34 1
34 10 1
2 10 1
10 2 1
13 41 1
41 42 1
42 3 1
3 42 1
42 43 1
43 3 1
23 2 1
2 23 1
23 13 1
13 23 1
