14 4 44
4 14 43
7 14 28
14 7 27
15 14 22
14 15 21
6 4 13
6 14 13
14 6 13
4 6 12
7 6 10
6 7 9
4 7 7
14 20 5
20 14 4
14 26 4
26 14 4
4 26 4
7 4 3
26 4 3
3 4 2
26 7 2
7 9 2
14 30 2
30 14 2
1 2 1
2 3 1
4 3 1
4 5 1
5 4 1
7 8 1
8 7 1
6 9 1
9 4 1
7 10 1
10 4 1
4 10 1
10 11 1
11 7 1
7 12 1
12 13 1
13 12 1
12 14 1
6 15 1
7 16 1
16 17 1
17 7 1
7 18 1
18 7 1
7 19 1
19 14 1
7 21 1
21 14 1
14 22 1
22 14 1
15 23 1
23 15 1
14 24 1
24 14 1
14 25 1
25 6 1
6 24 1
24 4 1
14 27 1
27 7 1
9 6 1
4 9 1
9 28 1
28 4 1
4 29 1
29 4 1
4 15 1
9 7 1
20 4 1
7 26 1
4 24 1
24 6 1
15 4 1
