5 6 64
6 5 62
33 34 8
5 39 8
5 22 7
34 33 7
44 5 7
28 29 6
35 5 6
39 5 6
5 44 6
56 5 6
6 8 5
29 28 5
6 33 5
22 35 5
6 49 5
8 6 4
9 6 4
33 6 4
28 37 4
37 28 4
5 41 4
49 6 4
5 56 4
3 4 3
8 5 3
9 5 3
5 9 3
12 6 3
6 13 3
16 5 3
24 6 3
5 16 3
5 30 3
5 33 3
33 5 3
34 5 3
5 34 3
35 22 3
5 35 3
22 5 3
39 6 3
6 39 3
41 5 3
39 52 3
57 5 3
5 57 3
4 3 2
5 8 2
5 12 2
12 5 2
6 12 2
13 5 2
14 6 2
6 19 2
21 14 2
14 21 2
22 23 2
25 5 2
5 23 2
23 24 2
22 25 2
27 5 2
30 6 2
34 6 2
5 38 2
40 6 2
6 22 2
41 39 2
39 41 2
6 42 2
6 44 2
22 9 2
9 25 2
48 6 2
6 48 2
52 6 2
23 9 2
9 22 2
6 56 2
28 6 2
6 30 2
1 2 1
2 3 1
4 5 1
5 7 1
7 8 1
8 9 1
9 10 1
10 9 1
6 9 1
9 11 1
11 12 1
13 6 1
5 14 1
6 15 1
15 16 1
6 17 1
17 18 1
18 14 1
19 6 1
19 20 1
20 6 1
6 21 1
21 6 1
23 6 1
6 24 1
6 25 1
24 26 1
26 5 1
25 6 1
6 26 1
26 23 1
23 5 1
5 27 1
6 16 1
16 27 1
16 28 1
29 5 1
30 5 1
5 28 1
28 31 1
31 28 1
28 32 1
32 33 1
6 34 1
33 35 1
6 36 1
36 28 1
28 5 1
38 5 1
38 39 1
6 38 1
38 6 1
39 40 1
39 22 1
23 40 1
22 6 1
22 24 1
39 23 1
23 22 1
41 6 1
42 43 1
43 42 1
42 5 1
44 6 1
6 45 1
45 6 1
6 46 1
46 6 1
6 47 1
47 6 1
25 48 1
48 49 1
49 9 1
49 50 1
50 51 1
51 39 1
6 23 1
6 53 1
53 23 1
25 9 1
42 6 1
5 54 1
54 9 1
5 55 1
55 5 1
5 42 1
42 52 1
6 57 1
57 58 1
58 5 1
5 59 1
59 5 1
5 60 1
60 39 1
52 39 1
52 61 1
61 52 1
52 62 1
62 28 1
6 43 1
43 14 1
14 62 1
62 6 1
30 28 1
6 28 1
28 63 1
63 5 1
6 64 1
64 30 1
30 64 1
64 6 1
6 65 1
65 5 1
5 65 1
65 6 1
30 65 1
65 66 1
