5 6 57
6 5 46
5 24 34
24 5 32
6 24 32
24 6 27
14 20 15
20 14 15
13 14 14
14 44 14
44 14 14
14 13 13
5 10 11
10 5 11
14 5 11
24 14 11
19 14 10
24 33 10
18 14 9
14 24 9
14 18 8
14 19 8
33 24 8
24 44 8
24 30 7
30 24 7
44 24 7
23 5 6
5 14 6
38 30 6
30 38 6
5 8 5
8 5 5
6 10 5
10 6 5
14 17 5
17 14 5
14 6 5
5 23 5
6 14 5
6 25 4
29 24 4
38 14 4
6 7 3
10 12 3
12 10 3
6 23 3
23 24 3
24 23 3
14 38 3
7 6 2
6 8 2
8 6 2
14 15 2
23 6 2
25 6 2
24 29 2
24 35 2
24 34 2
24 39 2
39 24 2
30 46 2
46 47 2
47 30 2
46 48 2
48 46 2
22 53 2
1 2 1
2 3 1
3 4 1
4 5 1
5 7 1
7 8 1
8 7 1
7 9 1
9 5 1
7 5 1
5 11 1
11 5 1
5 13 1
15 14 1
14 16 1
16 14 1
15 19 1
14 21 1
21 13 1
13 21 1
21 14 1
14 22 1
22 20 1
23 14 1
13 6 1
25 23 1
25 5 1
5 25 1
25 24 1
5 26 1
26 25 1
25 27 1
27 14 1
6 28 1
28 5 1
6 18 1
6 15 1
15 5 1
5 20 1
20 6 1
6 29 1
24 31 1
31 24 1
30 5 1
14 32 1
32 14 1
20 19 1
6 12 1
12 5 1
33 19 1
14 34 1
34 14 1
14 28 1
28 13 1
19 20 1
33 6 1
33 5 1
35 24 1
35 33 1
24 36 1
36 24 1
24 37 1
37 5 1
34 6 1
34 29 1
24 38 1
38 28 1
28 38 1
38 24 1
24 28 1
28 24 1
14 40 1
40 14 1
14 41 1
41 14 1
20 5 1
14 42 1
42 14 1
14 43 1
43 14 1
44 5 1
14 45 1
45 14 1
5 38 1
14 30 1
24 48 1
48 30 1
30 47 1
47 49 1
49 46 1
46 14 1
14 46 1
46 5 1
5 50 1
50 51 1
51 50 1
50 6 1
6 50 1
50 52 1
52 50 1
50 5 1
6 22 1
53 22 1
