6 7 58
7 6 48
6 26 34
26 6 32
7 26 32
26 7 27
16 22 15
22 16 15
16 45 15
45 16 15
14 16 13
16 14 12
6 11 11
11 6 11
16 6 11
26 16 11
21 16 10
26 34 10
20 16 9
16 26 9
16 20 8
16 21 8
34 26 8
26 45 8
26 31 7
31 26 7
45 26 7
25 6 6
6 16 6
39 31 6
31 39 6
6 9 5
9 6 5
7 11 5
11 7 5
16 19 5
19 16 5
16 7 5
6 25 5
7 16 5
7 27 4
30 26 4
39 16 4
7 8 3
11 13 3
13 11 3
7 25 3
25 26 3
26 25 3
16 39 3
8 7 2
7 9 2
9 7 2
16 17 2
25 7 2
27 7 2
26 30 2
26 36 2
26 35 2
26 40 2
40 26 2
31 46 2
46 47 2
47 31 2
46 48 2
48 46 2
24 53 2
1 2 1
2 3 1
3 4 1
4 5 1
5 4 1
4 6 1
6 8 1
8 9 1
9 8 1
8 10 1
10 6 1
8 6 1
6 12 1
12 6 1
6 14 1
14 15 1
15 14 1
17 16 1
16 18 1
18 14 1
17 21 1
14 23 1
23 16 1
16 24 1
24 22 1
25 16 1
14 7 1
27 25 1
27 6 1
6 27 1
27 26 1
6 28 1
28 27 1
27 29 1
29 16 1
7 20 1
7 17 1
17 6 1
6 22 1
22 7 1
7 30 1
26 32 1
32 26 1
31 6 1
16 33 1
33 16 1
22 21 1
7 13 1
13 6 1
34 21 1
16 35 1
35 16 1
21 22 1
34 7 1
34 6 1
36 26 1
36 34 1
26 37 1
37 26 1
26 38 1
38 6 1
35 7 1
35 30 1
26 39 1
39 26 1
16 41 1
41 14 1
16 42 1
42 16 1
22 6 1
16 43 1
43 16 1
16 44 1
44 16 1
45 6 1
6 39 1
16 31 1
26 48 1
48 31 1
31 47 1
47 49 1
49 46 1
46 16 1
16 46 1
46 6 1
6 50 1
50 51 1
51 50 1
50 7 1
7 50 1
50 52 1
52 50 1
50 31 1
31 50 1
50 6 1
7 24 1
53 24 1
