20 16 92
16 20 86
12 10 19
10 12 17
16 10 12
10 16 11
16 77 10
10 11 9
77 16 9
2 5 8
64 16 8
5 2 7
11 10 7
52 16 7
16 52 7
16 64 7
20 21 6
10 39 6
39 10 6
37 16 6
16 37 6
21 20 5
23 16 5
50 16 5
16 50 5
16 7 5
16 21 5
21 16 5
16 23 4
10 34 4
7 16 4
11 12 3
29 24 3
16 65 3
2 4 2
4 2 2
9 5 2
5 9 2
24 29 2
34 10 2
20 37 2
12 11 2
43 16 2
46 16 2
7 56 2
56 7 2
58 59 2
60 16 2
16 60 2
65 16 2
37 65 2
65 37 2
1 2 1
2 3 1
3 2 1
5 6 1
6 5 1
5 7 1
7 8 1
8 9 1
9 10 1
10 13 1
13 5 1
5 13 1
13 14 1
14 15 1
15 5 1
5 16 1
16 17 1
17 16 1
16 18 1
18 19 1
19 20 1
21 10 1
11 22 1
22 23 1
16 24 1
24 25 1
25 24 1
24 26 1
26 27 1
27 28 1
28 29 1
24 30 1
30 31 1
31 32 1
32 24 1
24 33 1
33 20 1
34 20 1
16 35 1
35 36 1
36 20 1
37 7 1
7 20 1
20 38 1
38 10 1
10 40 1
40 41 1
41 42 1
42 20 1
20 12 1
12 16 1
20 43 1
16 43 1
16 44 1
44 20 1
16 45 1
45 46 1
16 47 1
47 48 1
48 20 1
16 49 1
49 50 1
50 47 1
47 51 1
51 52 1
52 47 1
47 20 1
20 53 1
53 16 1
16 46 1
20 54 1
54 55 1
55 54 1
54 16 1
7 57 1
57 58 1
59 58 1
58 38 1
38 58 1
59 10 1
10 20 1
20 60 1
60 61 1
61 16 1
16 62 1
62 63 1
63 10 1
12 64 1
65 66 1
66 20 1
16 67 1
67 16 1
37 20 1
16 11 1
11 56 1
56 12 1
12 68 1
68 10 1
10 69 1
69 12 1
10 7 1
7 10 1
34 12 1
10 70 1
70 71 1
71 20 1
20 72 1
72 20 1
16 73 1
73 74 1
74 20 1
20 75 1
75 76 1
76 20 1
77 20 1
16 12 1
12 8 1
8 12 1
12 78 1
78 20 1
20 79 1
