24 12 30
12 24 28
23 24 16
13 7 14
7 13 12
7 56 12
56 7 12
82 7 12
7 82 12
24 23 11
7 24 10
24 7 9
12 10 8
10 12 8
24 44 7
12 11 6
24 25 6
18 12 6
56 24 6
44 24 6
12 7 6
11 12 5
36 24 5
12 18 5
24 56 5
7 12 5
15 7 4
7 36 4
44 23 4
5 24 4
23 12 4
24 74 4
7 15 3
7 16 3
16 7 3
18 24 3
36 20 3
20 24 3
23 44 3
11 24 3
12 23 3
55 24 3
24 11 3
24 5 3
74 24 3
24 82 3
7 9 2
9 7 2
24 13 2
25 24 2
24 26 2
24 19 2
27 13 2
13 28 2
24 40 2
25 7 2
7 5 2
10 24 2
24 36 2
24 55 2
61 23 2
5 10 2
24 75 2
82 24 2
1 2 1
2 3 1
3 4 1
4 5 1
5 6 1
6 7 1
7 8 1
8 1 1
1 7 1
9 10 1
10 9 1
7 11 1
11 13 1
13 14 1
14 15 1
13 17 1
17 18 1
18 19 1
19 20 1
20 21 1
21 22 1
22 23 1
13 24 1
26 18 1
24 18 1
19 27 1
13 27 1
28 13 1
28 24 1
23 29 1
29 30 1
30 7 1
7 31 1
31 32 1
32 23 1
23 31 1
31 23 1
23 5 1
5 33 1
33 24 1
24 33 1
33 34 1
34 20 1
20 5 1
5 20 1
20 13 1
24 35 1
35 7 1
20 23 1
24 37 1
37 7 1
19 38 1
38 39 1
39 36 1
36 13 1
7 18 1
40 7 1
40 41 1
41 7 1
7 42 1
42 7 1
7 43 1
43 24 1
7 25 1
7 23 1
23 45 1
45 13 1
13 46 1
46 45 1
45 7 1
24 47 1
47 48 1
48 49 1
49 11 1
26 24 1
24 50 1
50 12 1
12 37 1
37 12 1
12 25 1
25 18 1
12 44 1
12 51 1
51 12 1
25 52 1
52 53 1
53 54 1
54 18 1
18 55 1
12 56 1
56 12 1
56 57 1
57 56 1
56 58 1
58 7 1
56 59 1
59 24 1
11 19 1
19 56 1
7 60 1
60 56 1
24 10 1
10 26 1
26 12 1
11 36 1
24 20 1
25 36 1
44 56 1
7 44 1
44 61 1
24 62 1
62 24 1
24 63 1
63 64 1
64 65 1
65 66 1
66 63 1
63 67 1
67 68 1
68 7 1
12 5 1
5 7 1
7 69 1
69 7 1
7 26 1
26 70 1
70 23 1
24 71 1
71 5 1
12 72 1
72 12 1
12 73 1
73 7 1
24 73 1
73 24 1
74 5 1
75 23 1
25 26 1
26 5 1
5 76 1
76 24 1
5 72 1
72 24 1
24 77 1
77 24 1
24 78 1
78 24 1
7 75 1
75 79 1
79 23 1
23 77 1
77 61 1
75 80 1
80 81 1
81 24 1
82 19 1
19 83 1
83 7 1
7 84 1
84 12 1
12 19 1
19 24 1
24 80 1
80 85 1
85 80 1
80 86 1
86 12 1
12 82 1
82 87 1
87 82 1
82 88 1
88 7 1
7 89 1
89 82 1
82 90 1
90 7 1
82 11 1
11 91 1
91 82 1
7 72 1
72 92 1
92 7 1
7 93 1
93 94 1
94 95 1
95 94 1
94 93 1
