21 11 30
11 21 29
20 21 16
12 6 14
6 12 13
6 68 13
21 20 12
6 21 12
6 46 12
46 6 12
68 6 12
21 6 10
9 11 9
11 9 8
21 36 7
11 6 7
11 10 6
11 17 6
17 11 6
46 21 6
36 21 6
10 11 5
21 46 5
6 11 5
14 6 4
36 20 4
10 21 4
20 11 4
21 61 4
61 21 4
6 14 3
6 15 3
15 6 3
21 17 3
17 21 3
18 21 3
20 36 3
11 20 3
45 21 3
21 10 3
21 9 3
51 20 3
21 68 3
6 8 2
8 6 2
21 12 2
22 12 2
12 23 2
6 18 2
21 33 2
6 20 2
9 21 2
21 45 2
21 66 2
68 21 2
68 69 2
69 6 2
1 2 1
2 3 1
3 4 1
4 5 1
5 6 1
6 7 1
7 1 1
1 6 1
8 9 1
9 8 1
6 10 1
10 12 1
12 13 1
13 14 1
12 16 1
16 17 1
17 18 1
18 19 1
19 20 1
12 21 1
21 22 1
12 22 1
23 12 1
23 21 1
20 24 1
24 6 1
6 25 1
25 26 1
26 20 1
20 25 1
25 20 1
20 27 1
27 21 1
21 27 1
27 28 1
28 18 1
18 12 1
21 29 1
29 6 1
18 20 1
21 30 1
30 6 1
21 31 1
31 32 1
32 18 1
6 17 1
33 6 1
33 34 1
34 6 1
6 35 1
35 21 1
20 37 1
37 12 1
12 38 1
38 37 1
37 6 1
6 39 1
39 21 1
21 40 1
40 41 1
41 42 1
42 10 1
21 43 1
43 11 1
11 30 1
30 11 1
11 36 1
11 44 1
44 11 1
17 45 1
11 46 1
46 11 1
46 47 1
47 46 1
46 48 1
48 6 1
46 49 1
49 21 1
10 46 1
6 50 1
50 46 1
21 18 1
36 46 1
6 36 1
36 51 1
21 52 1
52 21 1
21 53 1
53 54 1
54 55 1
55 56 1
56 53 1
53 57 1
57 58 1
58 6 1
11 59 1
59 11 1
11 60 1
60 6 1
21 60 1
60 21 1
21 62 1
62 21 1
21 59 1
59 21 1
21 63 1
63 21 1
21 64 1
64 21 1
6 65 1
65 20 1
20 63 1
63 51 1
20 51 1
66 67 1
67 21 1
6 70 1
70 11 1
66 71 1
71 66 1
66 50 1
50 11 1
11 68 1
68 71 1
71 68 1
68 72 1
72 6 1
68 10 1
10 73 1
73 68 1
6 59 1
59 74 1
74 6 1
6 75 1
75 76 1
76 75 1
