5 11 19
11 5 17
9 7 15
7 9 14
12 2 13
31 2 12
2 3 11
2 12 11
3 2 10
2 31 10
6 5 9
6 11 8
5 6 7
11 6 7
12 31 7
2 22 6
22 2 6
31 12 6
19 42 6
4 2 5
2 5 5
42 19 5
2 4 4
2 6 4
7 8 4
10 7 4
11 12 4
16 19 4
19 16 4
11 22 4
9 31 4
5 2 3
8 9 3
11 2 3
37 5 3
22 11 3
40 5 3
5 40 3
40 11 3
11 40 3
42 16 3
31 9 3
45 15 3
6 2 2
12 5 2
5 12 2
12 11 2
15 16 2
16 15 2
18 19 2
23 24 2
24 23 2
12 27 2
2 9 2
9 30 2
30 9 2
12 6 2
6 12 2
31 11 2
40 37 2
16 42 2
15 45 2
15 46 2
46 15 2
9 10 2
7 10 2
1 2 1
5 7 1
9 8 1
8 7 1
8 10 1
7 11 1
11 13 1
13 14 1
14 15 1
15 17 1
17 18 1
19 18 1
19 20 1
20 18 1
18 16 1
16 21 1
21 16 1
16 11 1
2 23 1
23 6 1
12 25 1
25 12 1
12 26 1
26 12 1
27 9 1
9 28 1
28 12 1
12 24 1
24 29 1
29 2 1
9 2 1
31 32 1
32 12 1
12 32 1
32 33 1
33 12 1
12 34 1
34 35 1
35 31 1
31 36 1
36 31 1
31 6 1
6 37 1
37 38 1
38 11 1
5 37 1
11 39 1
39 9 1
7 31 1
22 12 1
2 11 1
11 31 1
2 40 1
5 41 1
41 37 1
37 40 1
27 36 1
36 27 1
27 31 1
3 4 1
5 42 1
16 43 1
43 19 1
42 44 1
44 27 1
27 44 1
44 12 1
31 27 1
27 12 1
5 45 1
15 7 1
7 15 1
15 12 1
12 22 1
22 44 1
44 47 1
47 31 1
2 47 1
47 27 1
27 22 1
22 6 1
6 24 1
24 7 1
9 23 1
23 9 1
10 48 1
