8 25 53
25 8 48
18 28 11
28 18 11
8 10 10
10 8 10
8 19 10
34 8 9
19 8 8
23 13 8
8 20 7
8 34 7
8 6 6
12 13 6
20 8 6
13 23 6
30 8 5
6 8 4
15 13 4
13 15 4
13 21 4
8 30 4
30 25 4
11 8 3
13 6 3
18 11 3
13 12 3
21 13 3
26 25 3
27 11 3
11 18 3
25 30 3
13 14 2
16 13 2
11 6 2
18 6 2
6 18 2
25 26 2
11 27 2
18 19 2
19 18 2
6 34 2
8 21 2
1 2 1
2 1 1
1 3 1
3 4 1
4 5 1
5 6 1
6 7 1
7 8 1
8 9 1
9 8 1
10 6 1
6 10 1
8 11 1
8 12 1
14 13 1
14 15 1
15 16 1
13 16 1
6 17 1
17 8 1
8 17 1
17 18 1
19 17 1
17 19 1
19 12 1
13 8 1
20 19 1
19 6 1
6 21 1
21 12 1
21 18 1
18 22 1
22 21 1
21 22 1
22 6 1
18 23 1
23 6 1
6 24 1
24 8 1
25 6 1
6 13 1
6 23 1
6 26 1
25 27 1
25 18 1
6 29 1
29 30 1
25 28 1
28 30 1
30 31 1
31 17 1
17 32 1
32 12 1
12 33 1
33 12 1
12 34 1
34 35 1
35 25 1
25 35 1
35 8 1
25 11 1
18 8 1
8 36 1
36 13 1
13 36 1
36 23 1
13 30 1
30 11 1
11 29 1
29 36 1
36 6 1
6 36 1
36 8 1
21 37 1
37 8 1
8 37 1
37 21 1
21 38 1
38 8 1
19 11 1
6 11 1
21 8 1
25 39 1
39 40 1
40 41 1
41 8 1
6 30 1
25 42 1
42 28 1
28 42 1
42 6 1
