20 21 13
21 20 10
20 14 7
14 20 7
7 20 3
19 7 2
1 2 1
2 3 1
3 4 1
4 5 1
5 6 1
6 7 1
7 8 1
8 9 1
9 8 1
8 10 1
10 11 1
11 12 1
12 13 1
13 14 1
14 15 1
15 16 1
16 14 1
14 17 1
17 18 1
18 19 1
20 22 1
22 20 1
20 23 1
23 20 1
20 24 1
24 20 1
21 25 1
25 21 1
21 26 1
26 21 1
21 27 1
27 28 1
28 19 1
20 29 1
29 20 1
21 30 1
30 21 1
21 31 1
31 32 1
32 21 1
20 33 1
33 34 1
34 35 1
35 20 1
20 36 1
36 20 1
20 37 1
37 38 1
38 39 1
39 40 1
40 21 1
21 41 1
41 42 1
42 43 1
43 44 1
44 20 1
20 45 1
45 46 1
46 47 1
47 48 1
48 14 1
14 21 1
21 49 1
49 20 1
20 50 1
50 14 1
14 51 1
51 52 1
52 53 1
53 54 1
54 14 1
21 55 1
55 20 1
21 33 1
33 21 1
21 56 1
56 51 1
51 20 1
21 57 1
57 58 1
58 21 1
20 51 1
51 7 1
20 59 1
59 21 1
21 60 1
60 61 1
61 62 1
62 20 1
20 63 1
63 64 1
64 5 1
5 65 1
65 56 1
56 20 1
20 58 1
58 20 1
21 66 1
66 67 1
67 21 1
21 53 1
53 68 1
68 46 1
46 5 1
5 51 1
51 69 1
69 70 1
70 71 1
71 72 1
72 70 1
70 21 1
21 73 1
73 21 1
21 74 1
74 20 1
20 75 1
75 76 1
76 42 1
42 77 1
77 78 1
78 79 1
79 75 1
75 80 1
80 81 1
81 79 1
79 42 1
42 82 1
82 83 1
83 84 1
84 75 1
75 85 1
85 20 1
20 86 1
86 87 1
87 88 1
88 89 1
89 88 1
88 90 1
90 20 1
20 91 1
91 92 1
92 93 1
93 86 1
86 93 1
93 63 1
63 94 1
94 20 1
14 31 1
31 95 1
95 21 1
20 96 1
96 97 1
97 98 1
98 32 1
