10 9 20
9 10 18
20 13 16
25 3 16
13 20 15
3 25 15
22 13 14
13 22 13
3 17 9
17 3 9
9 18 9
21 22 9
22 21 9
18 9 7
8 9 6
21 45 6
9 8 5
25 17 5
4 7 4
7 4 4
10 13 4
9 32 4
32 10 4
13 25 4
3 18 4
45 21 4
4 6 3
6 4 3
10 11 3
11 13 3
17 9 3
10 32 3
17 25 3
3 20 3
20 14 3
13 11 3
25 20 3
9 17 3
17 13 3
25 13 3
18 3 3
32 21 3
21 7 3
7 10 3
10 7 3
2 3 2
11 12 2
13 12 2
12 10 2
13 10 2
14 10 2
12 9 2
18 10 2
10 18 2
12 20 2
20 12 2
32 9 2
13 17 2
14 33 2
33 13 2
10 35 2
20 25 2
11 9 2
3 13 2
13 3 2
22 3 2
45 32 2
21 32 2
7 21 2
1 2 1
3 2 1
3 4 1
4 5 1
5 4 1
4 8 1
12 11 1
10 14 1
14 11 1
11 14 1
13 15 1
15 12 1
9 12 1
9 16 1
16 3 1
18 19 1
19 20 1
13 21 1
21 11 1
12 13 1
13 23 1
23 22 1
22 23 1
23 24 1
24 17 1
17 24 1
24 3 1
3 24 1
24 25 1
17 26 1
26 27 1
27 25 1
17 28 1
28 29 1
29 3 1
3 30 1
30 28 1
28 25 1
25 28 1
28 31 1
31 3 1
3 10 1
32 22 1
11 34 1
34 11 1
11 3 1
3 11 1
11 10 1
35 36 1
36 37 1
37 10 1
11 38 1
38 25 1
20 3 1
3 39 1
39 14 1
13 40 1
40 3 1
3 41 1
41 3 1
13 42 1
42 17 1
17 11 1
11 17 1
18 11 1
17 20 1
20 17 1
14 25 1
25 43 1
43 3 1
18 44 1
44 22 1
3 21 1
32 45 1
45 25 1
25 6 1
6 13 1
13 6 1
6 14 1
14 6 1
6 10 1
9 46 1
46 39 1
39 11 1
11 21 1
7 47 1
47 7 1
7 16 1
16 10 1
35 48 1
48 17 1
17 22 1
