31 3 29
3 31 28
3 23 16
3 4 13
4 3 13
23 3 12
3 12 11
24 3 9
47 24 8
12 3 7
22 24 7
3 42 7
24 47 7
3 11 6
3 24 6
31 23 6
2 1 5
1 3 5
3 9 5
9 3 5
42 3 5
42 31 5
39 3 5
1 2 4
3 1 4
11 3 4
4 12 4
12 4 4
20 3 4
24 22 4
23 31 4
24 42 4
3 39 4
12 31 4
22 3 3
24 23 3
23 24 3
31 42 3
22 45 3
53 24 3
54 31 3
3 63 3
63 3 3
3 2 2
2 3 2
2 7 2
18 3 2
3 20 2
23 22 2
3 26 2
26 3 2
24 31 2
3 43 2
42 22 2
47 52 2
1 47 2
31 12 2
45 24 2
3 22 2
24 45 2
45 22 2
1 4 1
4 2 1
3 5 1
5 6 1
6 2 1
7 2 1
7 3 1
1 5 1
5 8 1
8 3 1
3 10 1
10 3 1
11 12 1
12 13 1
13 11 1
11 13 1
13 3 1
11 14 1
14 3 1
12 15 1
15 12 1
12 16 1
16 3 1
3 17 1
17 12 1
3 18 1
3 19 1
19 3 1
12 21 1
21 3 1
3 21 1
21 22 1
23 25 1
25 24 1
24 20 1
20 24 1
22 27 1
27 23 1
23 28 1
28 3 1
23 29 1
29 3 1
3 30 1
30 2 1
2 22 1
22 23 1
23 32 1
32 23 1
31 33 1
33 31 1
31 20 1
31 34 1
34 35 1
35 36 1
36 37 1
37 3 1
23 35 1
35 38 1
38 34 1
34 31 1
23 33 1
33 23 1
23 20 1
20 39 1
39 31 1
31 40 1
40 31 1
23 41 1
41 24 1
43 3 1
43 22 1
22 42 1
31 39 1
42 26 1
26 24 1
42 24 1
24 44 1
44 31 1
31 22 1
22 44 1
44 22 1
45 46 1
46 45 1
45 42 1
42 45 1
45 31 1
42 39 1
31 47 1
47 48 1
48 31 1
39 49 1
49 42 1
42 47 1
24 50 1
50 24 1
24 51 1
51 43 1
43 24 1
42 43 1
43 42 1
52 47 1
52 1 1
3 47 1
1 53 1
24 43 1
43 47 1
47 43 1
43 1 1
47 1 1
47 53 1
24 12 1
12 24 1
24 53 1
3 54 1
31 55 1
55 31 1
12 54 1
31 9 1
9 31 1
31 56 1
56 12 1
31 57 1
57 12 1
4 20 1
20 4 1
12 58 1
58 59 1
59 12 1
31 60 1
60 18 1
31 45 1
31 54 1
3 61 1
61 24 1
45 3 1
3 53 1
53 3 1
31 48 1
48 62 1
62 20 1
20 22 1
22 1 1
12 64 1
64 65 1
65 20 1
12 26 1
26 12 1
