9 10 50
10 9 47
2 4 27
9 2 26
2 9 24
4 2 23
4 9 17
10 4 17
4 10 15
9 4 13
29 28 12
5 4 11
28 29 11
4 5 10
9 28 10
19 10 9
4 3 8
10 5 8
3 4 7
9 21 7
5 10 7
13 10 6
10 19 6
21 9 6
28 9 6
5 3 5
10 13 5
28 10 5
10 29 5
29 10 5
2 10 5
10 3 5
2 14 4
14 2 4
3 5 4
10 2 4
3 9 4
3 2 3
16 10 3
16 9 3
9 3 3
3 10 3
29 9 3
3 29 3
9 29 3
9 42 3
42 9 3
2 5 2
12 9 2
5 2 2
17 16 2
9 16 2
29 3 2
10 28 2
4 29 2
19 34 2
34 19 2
9 40 2
40 9 2
1 2 1
2 3 1
4 6 1
6 5 1
2 7 1
7 8 1
8 2 1
5 9 1
10 11 1
11 12 1
9 13 1
10 12 1
4 15 1
15 4 1
2 16 1
10 17 1
10 16 1
9 17 1
9 18 1
18 19 1
19 9 1
9 19 1
19 18 1
18 9 1
10 20 1
20 21 1
21 19 1
2 22 1
22 2 1
3 23 1
23 4 1
9 20 1
20 10 1
4 24 1
24 4 1
4 25 1
25 10 1
10 26 1
26 3 1
10 27 1
27 9 1
9 27 1
27 2 1
28 4 1
29 30 1
30 9 1
4 31 1
31 9 1
2 32 1
32 9 1
29 2 1
2 29 1
10 21 1
21 2 1
2 33 1
33 9 1
19 35 1
35 19 1
10 36 1
36 19 1
10 37 1
37 19 1
9 38 1
38 9 1
29 39 1
39 9 1
10 41 1
41 10 1
42 21 1
21 10 1
10 42 1
21 4 1
9 5 1
28 2 1
10 43 1
