9 6 30
14 6 26
6 14 25
6 9 24
3 2 10
14 18 10
2 3 8
16 14 8
18 14 8
6 28 8
28 6 8
17 6 7
5 6 6
6 17 6
45 22 6
6 5 5
14 16 5
6 20 5
23 38 5
22 14 5
14 22 5
22 45 5
20 6 4
38 23 4
2 4 3
6 15 3
24 18 3
18 23 3
25 26 3
26 25 3
6 12 3
31 14 3
34 14 3
18 24 3
22 18 3
17 11 3
18 22 3
39 14 3
14 39 3
40 3 3
4 3 2
15 6 2
22 21 2
23 24 2
24 22 2
23 17 2
12 6 2
14 31 2
14 34 2
11 17 2
3 40 2
42 17 2
1 2 1
3 5 1
6 7 1
7 8 1
8 9 1
6 10 1
10 11 1
11 12 1
12 13 1
13 14 1
15 9 1
14 17 1
18 6 1
6 19 1
19 6 1
20 9 1
6 18 1
18 11 1
11 21 1
21 22 1
21 23 1
22 23 1
17 24 1
17 22 1
21 11 1
11 18 1
24 17 1
17 14 1
18 16 1
14 12 1
6 25 1
25 9 1
12 14 1
6 27 1
27 25 1
25 28 1
28 25 1
25 6 1
6 3 1
3 29 1
29 30 1
30 3 1
3 14 1
14 32 1
32 33 1
33 31 1
14 35 1
35 32 1
32 31 1
31 35 1
35 36 1
36 35 1
35 34 1
34 36 1
36 34 1
31 36 1
36 37 1
37 32 1
32 37 1
37 31 1
14 23 1
38 18 1
18 21 1
21 17 1
11 5 1
5 9 1
28 18 1
22 6 1
6 39 1
39 40 1
4 2 1
3 4 1
4 41 1
41 28 1
6 16 1
14 3 1
2 9 1
12 42 1
17 42 1
17 18 1
23 43 1
43 16 1
6 44 1
44 45 1
22 39 1
39 46 1
