6 11 26
11 6 24
11 3 15
3 11 15
11 12 12
12 11 12
19 21 9
11 23 9
23 11 9
21 19 9
48 19 7
49 6 7
26 11 7
28 11 6
19 48 6
11 26 6
11 19 6
6 3 5
23 13 5
11 28 5
6 49 5
13 11 5
3 21 5
11 48 5
48 11 5
3 5 4
5 6 4
6 5 4
5 3 4
13 14 4
14 13 4
13 23 4
25 3 4
11 13 4
37 6 4
21 3 4
19 11 4
19 6 4
3 6 3
21 11 3
11 7 3
3 25 3
26 25 3
27 11 3
11 21 3
25 26 3
57 58 3
6 19 3
6 16 2
16 6 2
18 19 2
19 20 2
20 19 2
14 11 2
11 24 2
6 37 2
48 13 2
13 48 2
21 24 2
24 21 2
21 52 2
11 14 2
11 57 2
58 57 2
48 14 2
14 48 2
25 21 2
1 2 1
2 1 1
1 3 1
3 4 1
4 3 1
3 7 1
7 8 1
8 9 1
9 10 1
10 11 1
12 13 1
14 6 1
5 15 1
15 6 1
6 17 1
17 11 1
11 18 1
19 18 1
7 22 1
22 11 1
23 14 1
14 23 1
7 11 1
24 3 1
3 26 1
25 27 1
13 28 1
28 29 1
29 14 1
13 26 1
26 28 1
12 30 1
30 11 1
11 22 1
22 12 1
12 27 1
28 31 1
31 28 1
11 32 1
32 22 1
22 33 1
33 12 1
11 34 1
34 35 1
35 11 1
11 36 1
36 11 1
11 37 1
6 38 1
38 37 1
37 39 1
39 37 1
6 23 1
23 40 1
40 11 1
11 41 1
41 11 1
11 42 1
42 23 1
11 43 1
43 11 1
6 44 1
44 6 1
6 45 1
45 13 1
13 46 1
46 47 1
47 46 1
46 48 1
48 3 1
3 27 1
3 48 1
19 49 1
24 49 1
11 50 1
50 25 1
25 51 1
51 25 1
52 11 1
6 21 1
21 14 1
13 53 1
53 54 1
54 13 1
14 55 1
55 56 1
56 11 1
58 11 1
11 59 1
59 13 1
11 60 1
60 11 1
11 25 1
3 61 1
61 5 1
14 19 1
19 62 1
62 19 1
19 14 1
57 6 1
11 63 1
63 64 1
64 11 1
11 65 1
65 66 1
66 65 1
65 6 1
19 22 1
22 3 1
3 67 1
67 11 1
21 25 1
21 68 1
68 12 1
52 21 1
7 69 1
69 11 1
6 70 1
70 6 1
19 3 1
11 71 1
71 25 1
