4 3 40
3 4 39
29 8 31
8 29 31
8 2 26
2 8 25
6 4 18
4 6 18
8 10 16
10 8 16
10 11 15
11 10 15
2 4 14
4 2 13
20 13 12
33 4 11
13 20 11
7 8 10
8 7 9
4 33 9
4 36 9
36 4 9
2 10 7
4 14 7
3 5 6
14 3 6
14 4 6
20 10 6
10 2 6
5 3 5
8 25 5
25 8 5
10 20 5
2 3 4
3 2 4
16 2 4
20 14 4
14 20 4
3 14 4
2 9 3
9 2 3
4 8 3
2 14 3
2 16 3
14 2 3
2 17 3
17 2 3
19 18 3
20 8 3
20 6 3
6 20 3
7 4 2
9 18 2
18 19 2
21 20 2
22 8 2
8 20 2
20 25 2
25 20 2
3 33 2
3 8 2
33 3 2
4 10 2
4 13 2
40 4 2
1 2 1
5 6 1
4 7 1
10 12 1
12 4 1
8 4 1
3 12 1
12 2 1
11 4 1
2 13 1
13 2 1
3 6 1
6 14 1
4 15 1
15 16 1
8 9 1
18 9 1
18 20 1
20 21 1
20 22 1
8 22 1
8 19 1
18 21 1
2 23 1
23 2 1
2 24 1
24 8 1
8 26 1
26 8 1
7 27 1
27 7 1
7 2 1
3 28 1
28 29 1
29 30 1
30 24 1
24 11 1
10 4 1
6 10 1
10 7 1
2 7 1
2 31 1
31 29 1
29 25 1
25 15 1
15 3 1
3 25 1
25 32 1
32 33 1
33 34 1
34 4 1
8 3 1
8 35 1
35 33 1
8 37 1
37 20 1
13 31 1
31 20 1
10 3 1
10 13 1
13 4 1
13 33 1
13 3 1
3 13 1
13 8 1
8 38 1
38 3 1
8 24 1
24 39 1
39 7 1
8 40 1
4 40 1
4 41 1
