5 36 83
36 5 83
49 5 33
5 49 31
42 5 21
5 42 21
30 5 20
5 30 19
5 15 18
89 88 18
15 5 17
5 45 17
88 89 16
28 5 15
5 28 15
45 5 14
88 5 12
45 49 10
5 88 10
5 89 10
20 5 9
5 20 9
31 30 8
49 45 8
89 5 8
30 31 7
10 5 6
28 37 5
11 12 3
5 11 3
13 5 3
26 5 3
5 26 3
41 42 3
5 44 3
48 5 3
37 28 3
36 28 3
65 26 3
26 64 3
117 5 3
5 117 3
5 10 2
10 11 2
11 13 2
21 5 2
24 5 2
5 31 2
44 5 2
50 28 2
51 36 2
64 65 2
26 66 2
5 72 2
72 36 2
72 73 2
5 84 2
5 97 2
97 5 2
88 71 2
101 88 2
107 108 2
5 112 2
5 116 2
1 2 1
2 3 1
3 4 1
4 3 1
3 5 1
5 6 1
6 7 1
7 8 1
8 9 1
9 10 1
12 5 1
5 12 1
12 10 1
11 10 1
5 13 1
12 11 1
12 14 1
14 5 1
15 16 1
16 17 1
17 18 1
18 19 1
19 20 1
20 21 1
5 22 1
22 23 1
23 24 1
5 25 1
25 26 1
26 27 1
27 28 1
5 29 1
29 7 1
7 10 1
30 6 1
6 5 1
5 32 1
32 33 1
33 5 1
5 34 1
34 5 1
28 24 1
5 35 1
35 10 1
37 38 1
38 39 1
39 28 1
28 40 1
40 41 1
42 41 1
42 43 1
43 42 1
42 28 1
44 10 1
45 46 1
46 47 1
47 48 1
5 48 1
49 26 1
26 49 1
49 34 1
34 50 1
28 51 1
36 52 1
52 36 1
28 33 1
33 37 1
5 53 1
53 5 1
5 54 1
54 55 1
55 45 1
28 45 1
45 28 1
28 56 1
56 28 1
28 57 1
57 37 1
37 32 1
32 5 1
5 58 1
58 5 1
5 59 1
59 36 1
36 60 1
60 36 1
28 61 1
61 28 1
28 62 1
62 41 1
42 63 1
63 64 1
64 26 1
26 65 1
66 64 1
64 37 1
37 26 1
66 67 1
67 26 1
64 67 1
67 5 1
5 65 1
65 68 1
68 69 1
69 28 1
45 70 1
70 71 1
71 37 1
37 72 1
72 49 1
28 55 1
55 50 1
73 28 1
28 74 1
74 73 1
73 36 1
36 75 1
75 28 1
37 76 1
76 36 1
36 77 1
77 36 1
36 78 1
78 36 1
36 79 1
79 30 1
30 7 1
7 30 1
31 5 1
30 51 1
36 80 1
80 5 1
28 81 1
81 5 1
5 82 1
82 83 1
83 5 1
5 21 1
84 5 1
84 85 1
85 86 1
86 5 1
5 87 1
87 5 1
89 7 1
7 72 1
73 90 1
90 48 1
5 91 1
91 5 1
5 92 1
92 93 1
93 92 1
92 94 1
94 5 1
5 95 1
95 96 1
96 5 1
5 98 1
98 5 1
5 99 1
99 84 1
84 89 1
28 89 1
71 88 1
89 100 1
100 101 1
101 59 1
59 101 1
101 84 1
84 101 1
101 71 1
71 101 1
71 102 1
102 101 1
88 59 1
59 103 1
103 89 1
89 36 1
36 89 1
89 104 1
104 71 1
71 105 1
105 28 1
28 88 1
88 106 1
106 107 1
108 107 1
108 28 1
28 109 1
109 36 1
36 88 1
88 36 1
36 110 1
110 72 1
36 71 1
71 28 1
37 111 1
111 5 1
112 5 1
112 30 1
5 113 1
113 30 1
30 114 1
114 115 1
115 5 1
116 5 1
116 117 1
117 55 1
