24 3 68
3 24 63
3 2 46
2 3 44
10 24 30
24 10 30
9 24 24
24 41 20
41 24 18
24 9 17
3 9 13
27 24 10
16 24 10
24 27 9
9 3 9
9 2 8
24 16 8
16 9 7
17 24 7
24 17 7
37 24 7
24 37 7
41 9 7
17 16 6
2 9 6
1 16 5
16 17 5
16 1 5
9 41 5
4 2 4
19 16 4
23 16 4
9 23 4
24 29 4
29 9 4
2 36 4
2 24 4
36 3 4
3 62 4
3 4 3
3 5 3
5 3 3
16 19 3
9 16 3
27 16 3
36 2 3
29 24 3
24 43 3
3 36 3
49 3 3
16 3 3
3 61 3
61 3 3
62 3 3
2 4 2
4 3 2
9 10 2
22 17 2
16 23 2
9 17 2
17 9 2
9 25 2
26 25 2
25 16 2
23 9 2
9 27 2
9 1 2
29 16 2
9 29 2
2 29 2
10 38 2
22 3 2
46 9 2
9 47 2
47 9 2
3 50 2
50 24 2
24 2 2
3 49 2
60 3 2
62 60 2
3 63 2
63 3 2
1 2 1
5 6 1
6 3 1
5 7 1
7 5 1
2 8 1
8 9 1
10 11 1
11 10 1
10 12 1
12 9 1
9 13 1
13 14 1
14 15 1
15 1 1
16 18 1
18 16 1
1 19 1
16 20 1
20 21 1
21 16 1
16 22 1
17 22 1
25 26 1
16 25 1
25 24 1
24 26 1
25 9 1
27 28 1
28 27 1
27 17 1
17 27 1
27 29 1
29 27 1
27 30 1
30 27 1
24 4 1
1 31 1
31 32 1
32 24 1
24 33 1
33 34 1
34 27 1
27 3 1
3 27 1
3 1 1
1 32 1
32 3 1
3 35 1
35 16 1
16 27 1
16 29 1
29 2 1
9 8 1
8 22 1
22 24 1
9 20 1
20 37 1
37 9 1
38 24 1
38 10 1
24 39 1
39 24 1
9 40 1
40 9 1
3 22 1
1 9 1
41 42 1
42 41 1
43 24 1
24 44 1
44 40 1
40 24 1
43 9 1
9 45 1
45 46 1
24 40 1
40 46 1
9 48 1
48 24 1
16 37 1
37 16 1
2 10 1
10 9 1
24 20 1
20 24 1
24 49 1
50 3 1
24 50 1
3 51 1
51 9 1
16 52 1
52 24 1
3 16 1
24 5 1
2 16 1
24 21 1
21 9 1
43 29 1
29 49 1
49 29 1
3 53 1
53 9 1
3 54 1
54 41 1
41 3 1
24 55 1
55 56 1
56 2 1
9 22 1
2 57 1
57 9 1
24 8 1
8 49 1
3 58 1
58 3 1
24 59 1
59 24 1
49 60 1
60 62 1
62 28 1
28 62 1
3 64 1
64 3 1
