6 3 87
3 6 85
3 15 41
15 3 41
19 3 36
3 19 35
12 13 17
13 12 17
6 19 14
19 6 13
5 6 12
6 5 10
3 5 9
13 15 9
15 13 9
19 15 9
15 19 9
4 3 8
3 4 8
5 3 7
16 6 6
6 16 6
12 3 4
3 12 4
27 6 4
13 3 3
3 16 3
16 3 3
6 27 3
31 15 3
15 31 3
33 15 3
15 33 3
38 32 3
29 32 3
32 29 3
6 8 2
9 3 2
6 4 2
4 6 2
10 3 2
3 27 2
34 3 2
36 15 2
15 37 2
32 38 2
1 2 1
2 3 1
3 2 1
2 4 1
4 5 1
3 7 1
7 3 1
8 5 1
5 9 1
3 9 1
6 10 1
3 11 1
11 10 1
8 6 1
5 12 1
3 10 1
10 12 1
5 13 1
6 13 1
3 14 1
14 4 1
4 13 1
12 6 1
3 17 1
17 6 1
6 18 1
18 3 1
3 18 1
18 6 1
3 20 1
20 21 1
21 3 1
3 21 1
21 15 1
12 5 1
6 22 1
22 19 1
19 23 1
23 24 1
24 6 1
6 25 1
25 26 1
26 6 1
27 28 1
28 29 1
29 28 1
28 6 1
3 30 1
30 31 1
15 27 1
27 32 1
32 33 1
33 34 1
34 19 1
3 35 1
35 27 1
27 34 1
3 34 1
3 36 1
15 36 1
37 15 1
37 3 1
3 38 1
32 39 1
39 38 1
38 3 1
31 3 1
15 28 1
28 15 1
15 29 1
29 15 1
19 27 1
27 31 1
31 27 1
27 3 1
