24 25 34
14 24 34
23 22 32
22 23 31
24 14 31
25 24 29
29 23 20
7 21 20
14 21 19
23 29 19
21 14 16
21 7 16
24 21 12
25 23 11
21 24 11
7 14 11
12 14 10
23 25 10
14 7 9
14 12 8
26 24 8
24 26 7
24 23 7
15 7 7
21 29 7
28 29 6
23 24 6
7 15 6
14 11 6
25 22 6
14 23 6
22 24 5
29 28 5
31 24 5
33 7 5
25 28 5
12 24 5
11 14 5
29 30 4
30 29 4
24 31 4
7 33 4
24 22 4
21 25 4
21 26 4
24 12 4
63 14 4
24 7 4
23 14 4
13 24 4
29 21 4
3 4 3
15 18 3
24 27 3
27 24 3
15 28 3
28 15 3
26 28 3
28 24 3
28 25 3
11 24 3
38 14 3
14 42 3
7 24 3
10 14 3
26 21 3
22 25 3
7 42 3
73 14 3
24 13 3
29 7 3
12 52 3
52 12 3
1 2 2
2 1 2
1 3 2
4 3 2
1 5 2
3 1 2
10 11 2
18 15 2
20 21 2
21 12 2
12 21 2
24 28 2
23 31 2
31 23 2
7 26 2
14 29 2
29 22 2
19 33 2
36 24 2
14 26 2
26 14 2
24 11 2
23 10 2
17 39 2
39 17 2
17 7 2
7 25 2
14 25 2
44 7 2
25 7 2
46 47 2
25 21 2
42 14 2
42 52 2
52 42 2
24 54 2
54 24 2
56 7 2
7 56 2
14 61 2
62 64 2
64 24 2
30 10 2
68 30 2
30 68 2
14 73 2
14 64 2
74 13 2
29 14 2
21 80 2
7 29 2
21 86 2
14 63 2
4 1 1
5 3 1
1 6 1
6 1 1
5 7 1
7 8 1
8 9 1
9 10 1
11 10 1
11 12 1
12 13 1
13 12 1
14 15 1
15 16 1
16 15 1
15 17 1
17 18 1
18 19 1
19 15 1
18 20 1
21 18 1
18 21 1
21 20 1
14 22 1
25 14 1
29 24 1
25 31 1
23 32 1
32 15 1
15 26 1
28 26 1
28 33 1
33 28 1
28 7 1
26 7 1
22 19 1
33 19 1
7 34 1
34 29 1
29 34 1
34 28 1
28 19 1
19 28 1
28 12 1
12 25 1
25 35 1
35 25 1
28 14 1
14 36 1
24 15 1
15 14 1
14 37 1
37 11 1
24 38 1
11 23 1
10 17 1
23 12 1
24 40 1
40 14 1
14 38 1
38 41 1
41 39 1
39 38 1
42 38 1
25 43 1
43 7 1
23 44 1
7 45 1
45 7 1
7 46 1
47 46 1
47 7 1
7 48 1
48 7 1
25 42 1
42 24 1
22 49 1
49 17 1
17 14 1
22 29 1
14 50 1
50 51 1
51 39 1
39 24 1
24 42 1
42 53 1
53 26 1
26 53 1
53 25 1
24 36 1
24 55 1
55 24 1
25 56 1
56 57 1
57 58 1
58 56 1
56 59 1
59 60 1
60 7 1
7 44 1
7 17 1
61 62 1
62 61 1
61 63 1
42 7 1
42 62 1
64 62 1
42 25 1
25 65 1
65 42 1
42 61 1
61 7 1
7 64 1
7 66 1
66 14 1
22 10 1
26 15 1
7 67 1
67 30 1
10 67 1
67 10 1
10 30 1
10 68 1
68 10 1
10 69 1
69 7 1
61 14 1
14 70 1
70 14 1
22 71 1
71 10 1
22 30 1
30 14 1
14 72 1
72 23 1
23 72 1
72 14 1
7 73 1
64 74 1
13 74 1
64 14 1
14 17 1
17 21 1
14 75 1
75 76 1
76 26 1
24 77 1
77 78 1
78 79 1
79 21 1
80 7 1
7 12 1
24 78 1
78 7 1
80 81 1
81 82 1
82 80 1
80 83 1
83 84 1
84 14 1
14 85 1
85 14 1
86 14 1
24 86 1
86 21 1
86 87 1
87 10 1
10 7 1
21 79 1
79 88 1
88 7 1
7 79 1
79 83 1
83 79 1
79 89 1
89 81 1
81 7 1
24 52 1
52 14 1
21 63 1
