13 17 53
17 13 52
25 17 32
17 25 30
30 17 29
17 30 28
19 2 24
2 19 23
17 14 22
14 17 22
49 54 20
54 49 19
11 2 13
2 11 12
19 17 12
64 17 12
19 22 11
19 11 11
17 64 11
11 19 10
17 19 10
54 19 10
22 19 9
19 54 9
29 6 8
14 30 8
30 14 8
16 6 8
6 54 8
6 29 7
6 19 7
16 49 7
49 16 7
6 16 7
19 60 7
60 19 7
3 6 6
24 25 6
26 25 6
25 19 6
54 6 6
2 75 6
6 3 5
25 24 5
25 26 5
16 24 5
19 25 5
75 2 5
17 77 5
77 17 5
10 11 4
24 16 4
19 6 4
75 19 4
19 75 4
30 19 4
19 30 4
54 2 4
2 54 4
3 4 3
4 3 3
9 10 3
10 2 3
2 10 3
11 10 3
12 17 3
17 12 3
2 28 3
17 2 3
41 11 3
45 46 3
2 14 3
17 6 3
2 6 3
73 17 3
17 73 3
75 30 3
14 2 3
80 2 3
2 80 3
3 5 2
10 12 2
12 13 2
2 13 2
19 23 2
28 19 2
17 31 2
2 17 2
32 25 2
11 41 2
43 6 2
46 11 2
11 28 2
28 11 2
16 30 2
17 49 2
6 17 2
14 6 2
6 2 2
19 4 2
4 19 2
11 6 2
70 71 2
71 70 2
6 64 2
14 75 2
30 75 2
80 24 2
24 80 2
28 2 2
49 17 2
89 54 2
19 93 2
93 92 2
94 30 2
30 94 2
1 2 1
2 3 1
5 3 1
5 6 1
6 7 1
7 3 1
6 8 1
8 6 1
6 9 1
11 9 1
12 9 1
2 9 1
9 2 1
13 12 1
13 14 1
14 13 1
13 15 1
15 16 1
16 13 1
13 16 1
16 14 1
14 12 1
12 10 1
10 13 1
17 18 1
18 19 1
13 20 1
20 21 1
21 19 1
23 19 1
23 24 1
25 27 1
27 25 1
25 10 1
10 25 1
2 27 1
27 2 1
19 28 1
11 29 1
19 13 1
13 19 1
31 17 1
31 2 1
2 26 1
26 32 1
25 32 1
25 33 1
33 34 1
34 17 1
17 35 1
35 14 1
17 36 1
36 17 1
17 37 1
37 17 1
13 30 1
30 13 1
13 38 1
38 39 1
39 38 1
38 6 1
19 40 1
40 19 1
19 41 1
41 42 1
42 41 1
11 43 1
6 43 1
6 42 1
42 44 1
44 45 1
11 45 1
46 45 1
19 47 1
47 11 1
11 48 1
48 49 1
49 50 1
50 51 1
51 16 1
24 11 1
11 46 1
46 19 1
19 52 1
52 24 1
24 49 1
49 53 1
53 54 1
54 13 1
30 16 1
16 55 1
55 56 1
56 16 1
17 16 1
30 57 1
57 58 1
58 19 1
19 16 1
17 26 1
26 17 1
17 11 1
49 59 1
59 49 1
60 25 1
6 61 1
61 62 1
62 63 1
63 25 1
25 62 1
62 30 1
6 55 1
55 30 1
30 6 1
2 64 1
64 6 1
6 30 1
6 57 1
57 9 1
9 19 1
6 65 1
65 19 1
19 66 1
66 19 1
6 67 1
67 6 1
6 68 1
68 6 1
6 69 1
69 70 1
70 72 1
72 19 1
64 73 1
73 19 1
22 26 1
25 64 1
64 11 1
11 74 1
74 11 1
2 74 1
74 2 1
19 74 1
74 19 1
75 14 1
75 74 1
74 75 1
75 6 1
6 76 1
76 6 1
17 78 1
78 64 1
64 79 1
79 77 1
77 64 1
64 24 1
24 53 1
53 80 1
80 81 1
81 24 1
24 2 1
19 82 1
82 2 1
11 14 1
2 83 1
83 25 1
25 84 1
84 25 1
2 59 1
59 2 1
2 76 1
76 85 1
85 14 1
30 49 1
30 80 1
80 6 1
6 86 1
86 30 1
30 54 1
54 87 1
87 82 1
82 59 1
59 6 1
19 49 1
54 53 1
53 11 1
54 14 1
14 88 1
88 6 1
6 89 1
54 89 1
54 59 1
59 89 1
89 6 1
6 49 1
49 60 1
22 90 1
90 89 1
89 90 1
90 2 1
2 89 1
89 2 1
49 2 1
19 91 1
91 2 1
13 2 1
2 53 1
53 92 1
92 19 1
93 19 1
92 93 1
92 94 1
94 95 1
95 13 1
