12 16 53
16 12 52
24 16 32
16 24 30
29 16 29
16 29 28
18 1 24
1 18 23
16 13 22
13 16 22
48 53 20
53 48 19
10 1 13
1 10 12
18 16 12
63 16 12
18 21 11
18 10 11
16 63 11
10 18 10
16 18 10
53 18 10
21 18 9
18 53 9
28 5 8
13 29 8
29 13 8
15 5 8
5 53 8
5 28 7
5 18 7
15 48 7
48 15 7
5 15 7
18 59 7
59 18 7
2 5 6
23 24 6
25 24 6
24 18 6
53 5 6
1 74 6
5 2 5
24 23 5
24 25 5
15 23 5
18 24 5
74 1 5
16 76 5
76 16 5
9 10 4
23 15 4
18 5 4
74 18 4
18 74 4
29 18 4
18 29 4
53 1 4
1 53 4
2 3 3
3 2 3
8 9 3
9 1 3
1 9 3
10 9 3
11 16 3
16 11 3
1 27 3
16 1 3
40 10 3
44 45 3
1 13 3
16 5 3
1 5 3
72 16 3
16 72 3
74 29 3
13 1 3
79 1 3
1 79 3
2 4 2
9 11 2
11 12 2
1 12 2
18 22 2
27 18 2
16 30 2
1 16 2
31 24 2
10 40 2
42 5 2
45 10 2
10 27 2
27 10 2
15 29 2
16 48 2
5 16 2
13 5 2
5 1 2
18 3 2
3 18 2
10 5 2
69 70 2
70 69 2
5 63 2
13 74 2
29 74 2
79 23 2
23 79 2
27 1 2
48 16 2
88 53 2
18 92 2
92 91 2
93 29 2
29 93 2
1 2 1
4 2 1
4 5 1
5 6 1
6 2 1
5 7 1
7 5 1
5 8 1
10 8 1
11 8 1
1 8 1
8 1 1
12 11 1
12 13 1
13 12 1
12 14 1
14 15 1
15 12 1
12 15 1
15 13 1
13 11 1
11 9 1
9 12 1
16 17 1
17 18 1
12 19 1
19 20 1
20 18 1
22 18 1
22 23 1
24 26 1
26 24 1
24 9 1
9 24 1
1 26 1
26 1 1
18 27 1
10 28 1
18 12 1
12 18 1
30 16 1
30 1 1
1 25 1
25 31 1
24 31 1
24 32 1
32 33 1
33 16 1
16 34 1
34 13 1
16 35 1
35 16 1
16 36 1
36 16 1
12 29 1
29 12 1
12 37 1
37 38 1
38 37 1
37 5 1
18 39 1
39 18 1
18 40 1
40 41 1
41 40 1
10 42 1
5 42 1
5 41 1
41 43 1
43 44 1
10 44 1
45 44 1
18 46 1
46 10 1
10 47 1
47 48 1
48 49 1
49 50 1
50 15 1
23 10 1
10 45 1
45 18 1
18 51 1
51 23 1
23 48 1
48 52 1
52 53 1
53 12 1
29 15 1
15 54 1
54 55 1
55 15 1
16 15 1
29 56 1
56 57 1
57 18 1
18 15 1
16 25 1
25 16 1
16 10 1
48 58 1
58 48 1
59 24 1
5 60 1
60 61 1
61 62 1
62 24 1
24 61 1
61 29 1
5 54 1
54 29 1
29 5 1
1 63 1
63 5 1
5 29 1
5 56 1
56 8 1
8 18 1
5 64 1
64 18 1
18 65 1
65 18 1
5 66 1
66 5 1
5 67 1
67 5 1
5 68 1
68 69 1
69 71 1
71 18 1
63 72 1
72 18 1
21 25 1
24 63 1
63 10 1
10 73 1
73 10 1
1 73 1
73 1 1
18 73 1
73 18 1
74 13 1
74 73 1
73 74 1
74 5 1
5 75 1
75 5 1
16 77 1
77 63 1
63 78 1
78 76 1
76 63 1
63 23 1
23 52 1
52 79 1
79 80 1
80 23 1
23 1 1
18 81 1
81 1 1
10 13 1
1 82 1
82 24 1
24 83 1
83 24 1
1 58 1
58 1 1
1 75 1
75 84 1
84 13 1
29 48 1
29 79 1
79 5 1
5 85 1
85 29 1
29 53 1
53 86 1
86 81 1
81 58 1
58 5 1
18 48 1
53 52 1
52 10 1
53 13 1
13 87 1
87 5 1
5 88 1
53 88 1
53 58 1
58 88 1
88 5 1
5 48 1
48 59 1
21 89 1
89 88 1
88 89 1
89 1 1
1 88 1
88 1 1
48 1 1
18 90 1
90 1 1
12 1 1
1 52 1
52 91 1
91 18 1
92 18 1
91 92 1
91 93 1
93 94 1
94 12 1
