6 15 93
15 6 90
9 6 49
6 9 46
6 31 24
31 6 23
18 6 22
17 6 18
6 17 18
15 9 18
6 18 18
9 15 16
17 15 15
3 6 14
32 6 13
6 3 12
15 17 12
6 19 12
6 32 12
6 12 11
8 6 10
12 6 10
3 4 8
6 8 8
19 6 8
24 6 8
6 24 8
4 3 7
9 16 7
15 18 7
13 6 6
6 13 6
16 9 6
18 15 6
6 40 6
40 6 5
5 6 4
6 4 4
12 16 4
6 7 3
7 6 3
4 6 3
6 5 3
15 12 3
6 25 3
16 27 3
27 16 3
15 28 3
28 9 3
28 6 3
15 33 3
33 15 3
16 6 3
44 6 3
6 51 3
51 6 3
4 5 2
5 3 2
9 10 2
16 12 2
12 19 2
6 23 2
25 6 2
27 9 2
9 27 2
17 9 2
15 31 2
12 18 2
19 9 2
19 32 2
34 15 2
40 17 2
6 45 2
45 6 2
19 15 2
1 2 1
2 3 1
10 8 1
6 11 1
11 12 1
9 13 1
13 14 1
14 13 1
13 12 1
12 13 1
13 9 1
12 15 1
9 12 1
6 16 1
10 17 1
17 18 1
19 12 1
6 20 1
20 21 1
21 6 1
6 22 1
22 6 1
23 6 1
23 24 1
24 19 1
25 15 1
15 24 1
24 15 1
15 26 1
26 15 1
6 27 1
27 6 1
19 28 1
28 18 1
18 27 1
27 17 1
16 15 1
9 29 1
29 22 1
22 29 1
29 6 1
12 17 1
6 30 1
30 31 1
31 15 1
31 17 1
31 9 1
16 28 1
31 32 1
6 34 1
15 34 1
6 35 1
35 28 1
9 28 1
28 16 1
19 18 1
18 31 1
31 36 1
36 31 1
31 28 1
28 37 1
37 9 1
6 38 1
38 15 1
6 39 1
39 15 1
9 18 1
40 41 1
41 17 1
17 40 1
17 41 1
41 40 1
17 8 1
40 42 1
42 17 1
15 43 1
43 44 1
6 44 1
15 46 1
46 17 1
32 18 1
18 12 1
6 10 1
10 19 1
32 19 1
15 44 1
19 38 1
38 6 1
6 47 1
47 9 1
18 48 1
48 40 1
9 19 1
6 49 1
49 6 1
6 50 1
50 6 1
6 28 1
15 8 1
8 9 1
9 52 1
52 5 1
9 8 1
