9 7 26
17 21 23
21 17 22
6 5 21
5 6 19
7 9 17
17 9 17
9 17 13
5 9 12
5 17 12
25 7 12
9 5 12
7 17 11
25 9 10
7 25 10
5 40 10
9 25 8
44 21 8
21 5 8
17 5 8
17 7 7
40 5 7
21 44 7
5 21 7
4 7 6
5 39 6
49 9 6
5 7 5
7 5 5
13 9 5
7 26 5
7 4 5
5 8 5
8 5 5
39 5 5
40 43 5
9 49 5
9 43 5
2 4 4
7 8 4
8 9 4
9 13 4
16 17 4
17 16 4
9 24 4
26 25 4
24 4 4
26 7 4
26 9 4
31 17 4
6 32 4
24 9 4
37 5 4
44 17 4
17 44 4
43 9 4
4 2 3
10 7 3
20 21 3
21 20 3
25 26 3
4 26 3
26 24 3
4 25 3
17 30 3
17 31 3
32 6 3
9 26 3
5 36 3
5 37 3
5 42 3
42 5 3
43 40 3
21 7 3
43 5 3
7 40 3
9 8 2
9 10 2
8 10 2
10 9 2
8 7 2
11 12 2
12 11 2
19 5 2
24 25 2
4 24 2
25 2 2
2 25 2
24 26 2
26 4 2
9 4 2
7 24 2
30 31 2
30 17 2
17 6 2
5 33 2
33 5 2
36 5 2
39 6 2
7 21 2
21 45 2
45 21 2
5 43 2
50 7 2
21 9 2
9 21 2
1 2 1
2 3 1
3 2 1
4 5 1
7 10 1
10 8 1
5 10 1
7 11 1
11 7 1
7 13 1
9 14 1
14 15 1
15 14 1
14 16 1
16 6 1
17 18 1
18 17 1
17 19 1
5 19 1
17 20 1
20 22 1
22 17 1
9 23 1
23 7 1
25 24 1
2 26 1
7 27 1
27 28 1
28 27 1
27 29 1
29 4 1
4 9 1
24 7 1
7 2 1
9 2 1
2 9 1
31 30 1
32 5 1
6 9 1
6 8 1
25 4 1
7 34 1
34 35 1
35 24 1
36 6 1
6 37 1
17 38 1
38 24 1
24 38 1
38 5 1
6 39 1
40 6 1
7 41 1
41 5 1
40 44 1
45 44 1
44 45 1
44 5 1
21 46 1
46 21 1
5 44 1
5 47 1
47 9 1
17 48 1
48 40 1
43 44 1
44 43 1
43 17 1
21 49 1
9 50 1
7 51 1
51 50 1
7 52 1
52 9 1
43 7 1
40 7 1
40 35 1
35 21 1
40 17 1
7 53 1
53 5 1
7 54 1
54 7 1
7 55 1
55 7 1
7 56 1
56 6 1
6 7 1
7 6 1
6 57 1
