6 7 30
7 6 25
7 9 18
9 7 16
10 6 12
6 10 11
9 6 10
9 5 9
10 7 9
6 5 8
6 9 8
7 10 8
16 10 8
5 9 8
5 6 7
10 9 6
3 4 5
9 10 5
7 16 5
17 16 5
4 7 4
7 3 4
7 5 4
5 7 4
7 17 4
10 16 4
6 16 4
10 17 3
16 6 3
4 6 2
5 10 2
7 15 2
15 7 2
16 7 2
17 6 2
6 17 2
16 17 2
16 9 2
17 5 2
1 2 1
2 3 1
4 5 1
7 2 1
2 4 1
3 5 1
5 3 1
3 7 1
6 3 1
5 8 1
8 9 1
5 11 1
11 12 1
12 4 1
5 12 1
12 6 1
9 13 1
13 7 1
9 14 1
14 6 1
17 7 1
9 16 1
10 18 1
18 10 1
10 19 1
19 20 1
20 10 1
17 9 1
9 21 1
21 6 1
16 5 1
5 16 1
16 22 1
22 7 1
