14 5 47
5 14 41
5 12 39
12 5 39
34 12 24
12 34 24
30 12 21
12 2 21
12 30 20
2 12 20
5 13 18
13 5 17
5 34 16
7 5 15
5 7 14
34 5 14
23 34 8
5 23 7
33 14 7
14 33 7
34 23 7
2 30 6
30 2 6
2 5 5
5 9 5
9 5 5
12 23 5
23 12 5
17 47 5
47 17 5
6 5 4
12 14 4
19 20 4
36 5 4
12 47 4
47 12 4
5 6 3
14 12 3
12 17 3
20 19 3
23 5 3
5 32 3
32 5 3
5 36 3
3 2 2
2 3 2
10 5 2
13 14 2
17 12 2
12 19 2
5 21 2
9 22 2
22 23 2
23 9 2
9 7 2
7 9 2
23 24 2
24 23 2
23 14 2
14 40 2
40 14 2
5 2 2
23 6 2
1 2 1
2 1 1
1 3 1
3 4 1
4 2 1
7 6 1
5 8 1
8 5 1
9 10 1
5 10 1
5 11 1
11 5 1
5 15 1
15 16 1
16 12 1
5 18 1
18 5 1
5 19 1
19 12 1
20 12 1
19 5 1
21 9 1
22 9 1
23 22 1
21 5 1
9 23 1
5 25 1
25 5 1
6 14 1
12 26 1
26 5 1
5 27 1
27 28 1
28 20 1
20 29 1
29 13 1
5 30 1
30 14 1
5 31 1
31 5 1
5 33 1
33 34 1
34 35 1
35 36 1
5 37 1
37 38 1
38 5 1
5 39 1
39 5 1
13 6 1
6 7 1
34 7 1
34 14 1
14 30 1
30 13 1
13 41 1
41 12 1
7 12 1
12 42 1
42 30 1
5 43 1
43 12 1
30 5 1
5 44 1
44 45 1
45 12 1
12 45 1
45 30 1
12 46 1
46 13 1
13 12 1
17 2 1
2 48 1
48 2 1
2 49 1
49 2 1
5 50 1
50 51 1
51 23 1
23 13 1
14 52 1
52 7 1
6 23 1
34 52 1
52 34 1
34 53 1
