21 11 20
11 21 16
11 14 15
11 16 15
10 11 14
11 10 14
14 11 14
27 24 14
24 27 14
24 28 14
16 11 12
25 24 12
28 24 12
24 25 11
15 11 10
11 15 9
14 15 6
11 17 6
17 11 6
42 44 6
44 42 6
15 14 4
16 14 4
21 16 3
16 21 3
17 14 3
30 8 3
36 37 3
7 8 2
11 13 2
13 11 2
16 17 2
10 14 2
23 24 2
24 23 2
24 26 2
26 24 2
25 27 2
14 21 2
14 17 2
14 10 2
8 30 2
8 11 2
17 21 2
37 36 2
16 30 2
30 11 2
15 30 2
15 16 2
14 16 2
16 10 2
24 51 2
51 24 2
1 2 1
2 3 1
3 4 1
4 5 1
5 6 1
6 7 1
8 7 1
8 9 1
9 10 1
11 12 1
12 11 1
11 18 1
18 19 1
19 11 1
11 20 1
20 17 1
17 20 1
20 21 1
21 22 1
22 21 1
17 16 1
17 10 1
14 23 1
23 25 1
27 25 1
28 29 1
29 24 1
28 25 1
27 16 1
21 14 1
11 8 1
11 30 1
11 31 1
31 11 1
11 32 1
32 33 1
33 24 1
24 34 1
34 24 1
24 11 1
21 17 1
10 17 1
11 35 1
35 17 1
11 36 1
37 38 1
38 39 1
39 40 1
40 39 1
39 41 1
41 42 1
42 43 1
43 40 1
40 42 1
44 45 1
45 44 1
42 40 1
40 46 1
46 42 1
44 39 1
39 42 1
42 39 1
39 44 1
42 14 1
10 21 1
11 47 1
47 30 1
30 14 1
16 48 1
48 11 1
10 16 1
10 15 1
30 16 1
16 49 1
49 50 1
50 24 1
24 16 1
14 52 1
52 15 1
30 15 1
14 30 1
30 53 1
53 14 1
14 54 1
54 24 1
24 55 1
55 56 1
56 5 1
5 57 1
57 5 1
