1 7 168
7 1 168
2 1 54
1 2 52
27 1 32
1 27 32
1 9 28
9 1 25
9 7 16
7 9 15
1 6 12
7 6 12
6 1 11
6 7 9
25 27 8
27 25 8
6 2 7
2 7 7
27 7 6
7 27 6
3 1 5
7 2 5
1 17 5
3 7 4
7 3 4
17 1 4
7 23 4
25 1 4
1 3 3
5 3 3
2 6 3
23 7 3
7 25 3
1 25 3
9 10 2
7 15 2
1 20 2
24 25 2
25 7 2
7 29 2
29 7 2
2 3 1
3 4 1
4 3 1
3 5 1
1 5 1
3 8 1
8 3 1
3 9 1
9 5 1
10 7 1
1 11 1
11 7 1
10 1 1
7 12 1
12 7 1
1 13 1
13 7 1
9 14 1
14 9 1
15 2 1
1 16 1
16 1 1
1 18 1
18 1 1
17 19 1
19 1 1
20 7 1
20 21 1
21 7 1
7 22 1
22 23 1
23 1 1
23 2 1
15 24 1
25 24 1
25 26 1
26 25 1
25 28 1
28 1 1
1 30 1
30 31 1
31 30 1
30 27 1
27 30 1
30 1 1
2 9 1
9 32 1
