6 7 50
7 6 43
9 6 32
5 7 23
7 5 22
6 9 21
35 32 16
11 10 14
10 11 14
7 23 14
23 7 13
6 5 11
32 35 11
7 9 10
5 6 9
27 6 9
10 9 8
6 27 8
9 27 8
27 30 8
7 3 8
3 7 8
9 7 7
27 9 7
30 27 7
34 7 7
7 34 7
6 11 6
7 35 6
35 34 6
35 6 6
6 35 6
32 33 5
33 34 5
34 32 5
32 7 5
33 35 5
32 6 5
2 6 5
6 2 5
6 32 5
11 6 4
6 10 4
10 6 4
6 25 4
3 6 4
6 3 4
27 32 4
7 32 4
35 9 4
34 33 4
34 35 4
2 5 3
8 5 3
11 7 3
9 10 3
6 24 3
24 6 3
25 6 3
30 11 3
11 30 3
3 32 3
32 27 3
32 34 3
35 33 3
32 9 3
33 7 3
7 11 3
34 2 3
36 35 3
37 2 3
33 10 3
4 2 2
5 8 2
5 10 2
7 4 2
9 11 2
11 9 2
27 10 2
27 11 2
11 27 2
10 27 2
29 23 2
30 9 2
9 30 2
30 3 2
3 10 2
33 32 2
9 34 2
35 7 2
7 10 2
10 7 2
9 35 2
2 34 2
2 9 2
34 36 2
35 36 2
2 33 2
10 33 2
1 2 1
2 3 1
3 2 1
2 4 1
5 2 1
5 4 1
7 8 1
10 5 1
5 11 1
5 12 1
12 5 1
4 7 1
7 13 1
13 14 1
14 15 1
15 11 1
11 16 1
16 17 1
17 18 1
18 17 1
17 6 1
6 18 1
18 19 1
19 9 1
9 20 1
20 9 1
4 6 1
6 21 1
21 6 1
6 22 1
22 6 1
6 23 1
23 9 1
9 14 1
14 10 1
25 9 1
11 26 1
26 27 1
27 23 1
23 28 1
28 29 1
23 29 1
23 27 1
30 31 1
31 30 1
23 6 1
5 9 1
32 30 1
32 3 1
33 27 1
3 34 1
34 3 1
9 3 1
10 3 1
3 11 1
11 3 1
3 35 1
35 3 1
3 5 1
5 3 1
9 32 1
32 10 1
11 34 1
32 23 1
23 33 1
23 32 1
34 23 1
7 33 1
9 33 1
34 9 1
36 33 1
33 36 1
36 34 1
32 36 1
36 6 1
9 36 1
36 37 1
33 2 1
2 37 1
33 9 1
32 2 1
2 23 1
23 38 1
38 23 1
23 37 1
37 33 1
11 37 1
9 2 1
2 35 1
35 2 1
2 39 1
39 40 1
40 34 1
10 32 1
32 28 1
28 35 1
6 41 1
41 35 1
9 38 1
38 10 1
32 42 1
42 32 1
6 33 1
34 6 1
