17 32 37
32 17 34
17 15 29
15 17 28
17 46 27
46 17 23
17 18 13
18 17 13
15 35 13
17 24 13
24 17 12
13 9 11
31 15 11
35 15 11
13 15 9
17 22 9
17 39 9
39 17 9
17 64 9
64 17 9
27 17 8
17 29 8
24 13 8
3 5 7
9 13 7
22 17 7
15 32 7
32 15 7
5 3 6
10 13 6
15 13 6
21 17 6
29 17 6
17 27 6
35 54 6
17 21 5
13 24 5
15 31 5
34 35 5
54 35 5
5 6 4
17 31 4
35 17 4
17 37 4
37 17 4
53 35 4
13 17 4
6 5 3
9 10 3
15 10 3
15 34 3
35 34 3
34 15 3
35 36 3
36 35 3
42 34 3
35 53 3
16 17 3
3 4 2
4 5 2
10 11 2
11 9 2
13 14 2
14 13 2
13 5 2
5 13 2
9 16 2
16 15 2
16 13 2
20 10 2
23 13 2
24 27 2
27 24 2
29 22 2
22 29 2
33 17 2
32 31 2
13 38 2
38 13 2
22 15 2
15 42 2
42 33 2
45 17 2
17 45 2
46 47 2
47 46 2
34 42 2
45 46 2
45 49 2
35 46 2
17 55 2
57 58 2
58 15 2
57 17 2
46 40 2
60 22 2
10 61 2
61 10 2
15 63 2
46 35 2
46 24 2
63 17 2
17 40 2
40 17 2
46 15 2
22 46 2
17 35 2
35 22 2
13 16 2
17 16 2
12 13 2
1 2 1
2 3 1
4 3 1
6 3 1
5 4 1
5 7 1
7 6 1
6 8 1
8 9 1
11 10 1
9 12 1
12 10 1
15 11 1
9 17 1
15 19 1
19 13 1
15 20 1
10 20 1
10 17 1
15 23 1
13 23 1
24 25 1
25 24 1
24 26 1
26 24 1
24 28 1
28 29 1
22 30 1
30 27 1
15 27 1
17 33 1
37 31 1
35 10 1
24 37 1
29 33 1
29 34 1
15 40 1
40 36 1
36 17 1
17 41 1
41 15 1
42 17 1
31 17 1
17 42 1
42 43 1
43 17 1
29 15 1
33 42 1
33 44 1
44 15 1
15 33 1
33 29 1
29 45 1
46 42 1
34 22 1
22 34 1
34 32 1
22 32 1
46 45 1
46 48 1
48 45 1
49 50 1
50 51 1
51 34 1
46 51 1
51 49 1
49 45 1
45 35 1
35 48 1
48 50 1
50 35 1
35 52 1
52 48 1
48 49 1
49 35 1
35 49 1
49 48 1
48 11 1
11 38 1
38 53 1
54 45 1
49 17 1
55 56 1
56 46 1
55 17 1
17 57 1
58 57 1
15 58 1
15 57 1
46 59 1
59 46 1
40 60 1
22 60 1
10 35 1
35 62 1
62 15 1
63 32 1
32 63 1
63 40 1
40 35 1
35 40 1
40 15 1
63 46 1
15 64 1
64 63 1
46 63 1
40 21 1
46 65 1
65 17 1
17 59 1
59 17 1
17 66 1
66 17 1
17 67 1
67 46 1
46 57 1
32 29 1
29 24 1
24 15 1
15 68 1
68 35 1
32 46 1
15 46 1
46 22 1
15 22 1
22 35 1
35 69 1
69 35 1
35 24 1
13 61 1
61 13 1
15 24 1
17 13 1
46 16 1
16 24 1
24 46 1
15 16 1
32 16 1
16 46 1
13 3 1
3 12 1
13 12 1
13 39 1
