2 6 31
6 2 29
16 2 14
2 7 13
2 15 12
15 17 9
7 2 9
15 2 7
17 16 7
17 2 7
2 4 6
4 2 6
2 13 6
13 2 6
15 16 5
17 15 5
2 16 5
2 17 5
2 31 5
31 2 5
12 13 2
13 12 2
16 17 2
16 15 2
7 17 2
2 8 2
1 2 1
2 3 1
3 2 1
2 5 1
5 6 1
6 7 1
7 6 1
6 8 1
8 9 1
9 10 1
10 2 1
2 11 1
11 2 1
2 12 1
13 11 1
11 14 1
14 6 1
6 15 1
7 18 1
18 2 1
6 19 1
19 6 1
6 20 1
20 21 1
21 2 1
6 5 1
5 22 1
22 23 1
23 2 1
12 24 1
24 15 1
16 25 1
25 16 1
17 7 1
7 16 1
16 18 1
18 26 1
26 17 1
15 24 1
24 13 1
13 24 1
24 27 1
27 17 1
15 7 1
7 28 1
28 6 1
6 29 1
29 6 1
7 13 1
13 30 1
30 2 1
8 16 1
2 18 1
18 15 1
2 32 1
32 15 1
8 7 1
7 8 1
8 2 1
6 13 1
2 33 1
