31 30 18
7 5 17
30 31 15
5 7 14
22 4 13
4 5 11
4 22 11
5 30 8
5 10 6
5 4 6
5 22 5
5 26 5
30 10 5
10 5 5
30 5 5
26 5 4
22 5 4
16 18 3
18 19 3
34 5 3
10 31 3
31 10 3
10 30 3
47 30 3
7 4 2
4 15 2
15 4 2
19 16 2
4 7 2
10 4 2
30 47 2
30 48 2
30 4 2
4 30 2
5 31 2
22 10 2
1 2 1
2 3 1
3 4 1
5 6 1
6 7 1
7 8 1
8 4 1
4 9 1
9 10 1
10 11 1
11 10 1
10 12 1
12 10 1
10 13 1
13 4 1
4 14 1
14 4 1
4 16 1
16 17 1
17 16 1
18 16 1
19 18 1
16 4 1
5 20 1
20 7 1
5 21 1
21 4 1
22 23 1
23 4 1
22 24 1
24 4 1
4 25 1
25 5 1
5 27 1
27 5 1
26 7 1
7 28 1
28 7 1
5 29 1
29 30 1
31 32 1
32 33 1
33 5 1
7 34 1
34 30 1
30 35 1
35 31 1
10 34 1
5 36 1
36 5 1
5 37 1
37 4 1
4 38 1
38 10 1
5 39 1
39 34 1
5 34 1
30 40 1
40 41 1
41 22 1
22 42 1
42 22 1
4 43 1
43 44 1
44 22 1
22 45 1
45 22 1
22 3 1
3 46 1
46 47 1
48 47 1
47 31 1
4 49 1
49 5 1
5 42 1
42 5 1
4 50 1
50 15 1
15 5 1
4 51 1
51 4 1
30 52 1
52 53 1
53 4 1
4 47 1
47 4 1
30 54 1
54 55 1
55 22 1
4 56 1
56 22 1
5 47 1
47 54 1
54 31 1
31 57 1
57 4 1
48 31 1
30 22 1
22 7 1
31 58 1
58 4 1
4 10 1
10 39 1
39 7 1
10 22 1
10 59 1
59 22 1
10 7 1
7 22 1
22 60 1
60 53 1
53 5 1
