5 4 43
4 5 41
57 5 9
5 57 8
5 33 7
32 13 7
5 53 7
53 5 7
6 5 6
39 34 6
34 37 6
47 5 6
4 28 5
33 4 5
13 32 5
13 37 5
34 39 5
37 32 5
37 34 5
45 5 5
53 4 5
5 6 4
28 4 4
5 45 4
5 47 4
4 53 4
60 34 4
34 60 4
37 16 4
4 6 3
34 4 3
32 37 3
5 64 3
64 5 3
37 13 3
16 37 3
37 17 3
8 4 2
17 18 2
27 5 2
4 17 2
4 33 2
33 5 2
38 32 2
4 37 2
50 47 2
33 53 2
5 8 2
5 9 2
59 61 2
61 60 2
75 5 2
17 37 2
1 2 1
2 3 1
3 4 1
6 4 1
5 7 1
7 5 1
4 8 1
4 1 1
1 5 1
4 9 1
9 5 1
5 10 1
10 11 1
11 12 1
12 13 1
13 14 1
14 13 1
13 15 1
15 16 1
16 17 1
18 5 1
5 19 1
19 20 1
20 5 1
5 21 1
21 4 1
4 22 1
22 5 1
4 23 1
23 24 1
24 4 1
5 25 1
25 26 1
26 5 1
5 27 1
28 5 1
5 28 1
28 29 1
29 4 1
17 30 1
30 17 1
17 31 1
31 17 1
17 32 1
32 5 1
33 34 1
34 35 1
35 34 1
4 36 1
36 32 1
37 38 1
32 38 1
32 39 1
34 40 1
40 37 1
32 34 1
4 41 1
41 4 1
37 5 1
5 42 1
42 43 1
43 17 1
17 44 1
44 45 1
5 46 1
46 47 1
47 46 1
46 48 1
48 49 1
49 50 1
47 51 1
51 50 1
5 49 1
49 47 1
5 52 1
52 5 1
53 33 1
33 54 1
54 33 1
4 55 1
55 56 1
56 5 1
9 57 1
4 18 1
18 58 1
58 59 1
59 60 1
60 59 1
61 59 1
60 61 1
34 62 1
62 34 1
60 5 1
5 63 1
63 27 1
5 65 1
65 5 1
5 66 1
66 34 1
16 5 1
9 3 1
3 5 1
5 67 1
67 5 1
5 68 1
68 5 1
5 69 1
69 16 1
16 70 1
70 16 1
16 71 1
71 16 1
16 72 1
72 70 1
70 71 1
71 18 1
18 4 1
4 61 1
61 73 1
73 4 1
4 74 1
74 5 1
4 71 1
71 5 1
8 5 1
5 75 1
5 76 1
76 77 1
77 76 1
76 78 1
78 4 1
4 79 1
79 4 1
4 75 1
4 32 1
32 4 1
17 4 1
4 80 1
80 4 1
18 61 1
61 81 1
81 9 1
9 34 1
