13 6 33
6 13 32
6 35 29
35 6 27
43 17 23
19 6 21
6 11 20
11 6 20
17 43 20
4 6 19
6 19 18
6 4 18
4 43 16
43 4 14
13 20 12
17 4 12
6 65 12
20 13 11
20 4 11
4 20 11
27 42 10
42 27 10
65 6 10
17 6 9
6 17 8
4 17 8
4 42 8
4 21 6
36 43 6
42 4 6
5 6 5
21 4 5
36 17 5
6 5 4
14 2 4
13 2 4
2 13 4
38 19 4
43 36 4
43 30 4
30 43 4
35 19 4
6 8 3
2 14 3
14 10 3
27 20 3
20 27 3
28 20 3
4 13 3
17 36 3
19 38 3
27 36 3
42 44 3
30 17 3
50 19 3
19 50 3
6 51 3
42 43 3
42 57 3
57 42 3
62 58 3
58 62 3
65 43 3
8 6 2
6 10 2
10 6 2
13 14 2
14 13 2
10 14 2
19 13 2
20 28 2
36 27 2
27 43 2
44 45 2
49 42 2
51 52 2
53 6 2
6 54 2
4 36 2
4 34 2
34 4 2
43 42 2
36 46 2
46 36 2
17 30 2
30 60 2
63 6 2
43 65 2
1 2 1
2 3 1
3 2 1
2 4 1
4 5 1
6 7 1
7 6 1
8 9 1
9 6 1
11 12 1
12 13 1
13 15 1
15 6 1
11 14 1
2 16 1
16 14 1
10 12 1
12 17 1
17 12 1
12 18 1
18 19 1
13 11 1
11 20 1
20 21 1
21 22 1
22 23 1
23 24 1
24 25 1
25 4 1
4 26 1
26 20 1
20 26 1
26 27 1
27 12 1
12 28 1
20 11 1
6 20 1
20 29 1
29 6 1
6 30 1
30 31 1
31 20 1
20 31 1
31 11 1
11 32 1
32 6 1
6 33 1
33 19 1
6 34 1
34 6 1
13 36 1
6 37 1
37 17 1
17 38 1
19 39 1
39 19 1
6 26 1
26 40 1
40 41 1
41 28 1
28 13 1
6 40 1
40 27 1
43 28 1
28 42 1
45 27 1
44 27 1
43 27 1
43 9 1
9 4 1
43 46 1
46 17 1
17 46 1
46 30 1
21 47 1
47 48 1
48 47 1
47 17 1
17 47 1
47 6 1
13 49 1
42 49 1
42 50 1
50 51 1
52 6 1
52 51 1
51 6 1
51 53 1
6 53 1
54 6 1
54 4 1
17 55 1
55 56 1
56 55 1
55 43 1
43 56 1
56 42 1
43 2 1
2 6 1
20 35 1
35 4 1
6 42 1
27 4 1
42 58 1
58 42 1
45 42 1
42 30 1
30 36 1
43 59 1
59 43 1
60 30 1
60 43 1
17 61 1
61 17 1
17 62 1
62 17 1
51 13 1
19 30 1
17 63 1
6 63 1
6 9 1
9 11 1
6 64 1
64 65 1
65 66 1
66 4 1
65 67 1
67 68 1
68 65 1
65 17 1
4 62 1
58 6 1
65 69 1
69 4 1
13 4 1
4 47 1
47 70 1
70 4 1
42 71 1
71 43 1
43 58 1
62 4 1
36 58 1
58 72 1
72 65 1
65 73 1
73 74 1
74 58 1
58 74 1
74 65 1
43 35 1
19 35 1
13 43 1
