30 35 30
35 30 29
20 21 19
21 20 19
37 30 15
18 20 11
20 18 11
30 37 11
35 37 10
47 49 10
49 47 10
40 32 8
47 7 8
17 18 7
37 35 7
7 47 7
3 4 6
18 17 6
32 40 6
47 3 6
7 5 5
7 8 5
18 21 5
17 6 5
31 32 5
33 34 5
35 3 5
3 47 5
57 47 5
5 7 4
6 17 4
20 17 4
18 22 4
25 20 4
17 7 4
30 33 4
3 30 4
35 31 4
6 47 4
54 50 4
5 3 3
15 7 3
21 18 3
22 18 3
18 23 3
23 18 3
20 25 3
7 17 3
34 30 3
37 32 3
32 35 3
44 35 3
32 37 3
47 6 3
50 54 3
47 57 3
3 5 2
8 9 2
8 10 2
13 7 2
3 15 2
7 15 2
7 3 2
17 20 2
18 27 2
27 18 2
17 27 2
27 17 2
28 18 2
36 30 2
3 35 2
31 37 2
32 41 2
41 32 2
30 6 2
37 31 2
32 31 2
30 3 2
3 6 2
6 3 2
4 47 2
49 50 2
50 49 2
50 47 2
47 50 2
47 4 2
30 15 2
15 47 2
1 2 1
2 3 1
4 3 1
5 6 1
6 5 1
3 7 1
5 8 1
9 7 1
10 7 1
8 11 1
11 7 1
8 12 1
12 7 1
8 13 1
7 13 1
7 14 1
14 5 1
4 15 1
15 3 1
15 16 1
16 15 1
15 6 1
6 15 1
4 17 1
18 19 1
19 18 1
17 4 1
4 20 1
21 3 1
3 20 1
18 24 1
24 18 1
18 3 1
3 18 1
22 23 1
23 25 1
17 23 1
23 17 1
21 17 1
6 18 1
18 26 1
26 18 1
17 28 1
18 28 1
20 29 1
29 17 1
4 30 1
30 31 1
32 30 1
30 34 1
34 33 1
33 30 1
34 35 1
35 33 1
34 36 1
30 36 1
30 4 1
4 35 1
35 6 1
6 35 1
3 37 1
37 38 1
38 35 1
30 39 1
39 40 1
41 40 1
32 42 1
42 40 1
40 41 1
6 30 1
30 43 1
43 3 1
3 44 1
44 45 1
45 44 1
31 35 1
31 44 1
30 38 1
38 37 1
30 44 1
30 45 1
45 46 1
46 30 1
35 16 1
16 35 1
47 48 1
48 47 1
47 51 1
51 47 1
49 3 1
4 7 1
7 52 1
52 7 1
47 53 1
53 47 1
3 54 1
50 3 1
47 55 1
55 49 1
4 49 1
49 56 1
56 57 1
47 56 1
56 47 1
7 57 1
8 58 1
58 30 1
30 12 1
12 11 1
11 47 1
47 10 1
10 30 1
15 8 1
9 59 1
59 3 1
47 14 1
14 8 1
8 47 1
47 8 1
10 17 1
17 30 1
15 59 1
59 15 1
47 60 1
