3 2 57
2 3 51
4 8 34
8 4 34
4 3 26
3 4 24
7 4 15
8 5 15
4 7 13
5 8 13
4 2 12
24 18 12
4 12 10
12 4 10
4 38 10
38 4 10
18 24 9
2 4 8
5 4 7
3 8 7
31 3 7
30 3 6
3 32 6
18 3 6
5 6 5
6 5 5
8 7 5
2 10 5
4 5 5
3 31 5
32 3 5
5 38 5
38 5 5
7 8 4
10 2 4
10 11 4
11 10 4
2 7 4
4 14 4
14 4 4
18 23 4
3 30 4
3 33 4
36 3 4
3 18 4
39 40 4
7 9 3
9 7 3
8 3 3
18 19 3
19 18 3
21 18 3
23 18 3
9 8 3
8 9 3
3 36 3
2 5 2
5 2 2
8 14 2
14 8 2
15 16 2
16 4 2
4 15 2
2 17 2
18 21 2
18 22 2
22 18 2
21 22 2
4 9 2
9 4 2
7 29 2
33 3 2
3 37 2
5 3 2
2 39 2
40 3 2
40 39 2
10 25 2
18 10 2
10 18 2
1 2 1
2 12 1
12 10 1
10 4 1
12 3 1
7 2 1
2 8 1
8 13 1
13 4 1
3 5 1
8 15 1
16 15 1
15 4 1
4 16 1
15 3 1
17 5 1
4 18 1
18 20 1
20 21 1
24 21 1
22 25 1
25 22 1
22 26 1
26 21 1
22 27 1
27 24 1
24 3 1
2 26 1
26 4 1
4 26 1
26 3 1
7 28 1
28 4 1
29 7 1
29 2 1
2 30 1
32 31 1
33 30 1
30 34 1
34 3 1
3 34 1
34 32 1
32 30 1
33 31 1
3 35 1
35 36 1
8 2 1
17 24 1
23 24 1
18 12 1
37 3 1
37 18 1
4 32 1
32 35 1
35 4 1
2 41 1
41 42 1
42 4 1
4 43 1
43 4 1
25 10 1
25 24 1
3 24 1
18 8 1
4 44 1
44 4 1
4 45 1
45 4 1
4 46 1
46 4 1
