19 6 67
6 19 65
6 36 35
36 6 34
6 13 30
13 6 29
15 6 29
6 15 28
4 6 28
6 4 28
6 41 22
15 19 21
34 19 21
19 34 20
41 6 19
19 15 18
6 38 16
38 6 15
6 23 14
23 6 12
2 6 9
6 2 9
6 26 8
26 6 7
35 6 7
70 6 7
6 70 7
6 76 7
76 6 7
5 6 6
14 15 6
15 14 6
15 36 6
69 19 6
6 35 5
13 4 5
6 5 5
6 14 5
19 82 5
2 4 4
36 35 4
6 27 4
27 6 4
14 6 4
36 15 4
19 69 4
82 19 4
2 3 3
3 2 3
4 27 3
28 19 3
6 31 3
35 36 3
4 13 3
4 36 3
7 4 3
6 48 3
19 36 3
36 19 3
65 6 3
6 66 3
66 6 3
7 6 2
11 6 2
6 21 2
21 6 2
15 4 2
27 4 2
8 4 2
19 28 2
31 6 2
4 2 2
34 8 2
41 19 2
8 34 2
36 13 2
36 4 2
13 36 2
45 19 2
13 7 2
7 13 2
4 7 2
48 6 2
43 6 2
19 50 2
50 6 2
15 53 2
36 53 2
53 15 2
54 38 2
60 19 2
64 6 2
6 64 2
6 65 2
76 43 2
43 76 2
79 7 2
7 79 2
80 7 2
7 80 2
88 89 2
89 88 2
19 90 2
1 2 1
4 5 1
6 7 1
6 8 1
8 7 1
6 9 1
9 10 1
10 11 1
6 12 1
12 13 1
13 14 1
14 16 1
16 17 1
17 15 1
14 18 1
18 14 1
19 13 1
13 20 1
20 6 1
6 22 1
22 6 1
23 24 1
24 19 1
19 25 1
25 6 1
26 8 1
8 15 1
4 15 1
27 8 1
4 8 1
4 28 1
28 29 1
29 8 1
8 13 1
6 30 1
30 6 1
31 4 1
4 19 1
19 2 1
4 32 1
32 2 1
2 32 1
32 4 1
4 33 1
33 2 1
2 34 1
8 35 1
6 37 1
37 36 1
36 38 1
38 39 1
39 19 1
19 39 1
39 40 1
40 19 1
19 40 1
40 34 1
34 6 1
19 42 1
42 19 1
34 43 1
43 8 1
34 13 1
13 44 1
44 6 1
6 44 1
44 13 1
13 45 1
19 45 1
19 46 1
46 47 1
47 13 1
36 7 1
4 11 1
48 34 1
23 49 1
49 6 1
6 43 1
36 43 1
43 15 1
14 19 1
19 51 1
51 19 1
6 52 1
52 15 1
53 36 1
53 54 1
54 36 1
36 54 1
38 54 1
38 36 1
53 55 1
55 53 1
53 56 1
56 57 1
57 58 1
58 59 1
59 60 1
19 60 1
50 19 1
6 53 1
6 61 1
61 6 1
19 62 1
62 63 1
63 19 1
19 63 1
63 8 1
8 64 1
64 8 1
8 65 1
6 34 1
19 67 1
67 50 1
19 8 1
8 6 1
6 62 1
62 6 1
6 68 1
68 6 1
38 69 1
19 70 1
70 69 1
19 71 1
71 15 1
36 71 1
71 36 1
36 69 1
69 72 1
72 73 1
73 36 1
36 62 1
62 19 1
19 74 1
74 15 1
19 75 1
75 28 1
6 75 1
75 6 1
41 43 1
4 76 1
76 15 1
13 77 1
77 47 1
47 6 1
19 78 1
78 7 1
7 78 1
78 47 1
47 79 1
79 80 1
80 47 1
47 81 1
81 19 1
82 7 1
7 83 1
83 19 1
19 84 1
84 85 1
85 86 1
86 19 1
19 7 1
7 8 1
8 87 1
87 88 1
88 6 1
6 88 1
88 19 1
90 19 1
