28 31 32
22 28 30
28 22 29
31 28 28
25 28 23
17 28 22
28 17 22
83 28 20
28 25 19
28 83 17
25 85 16
85 25 16
21 22 11
49 56 11
56 49 11
28 16 11
16 28 11
17 31 11
31 39 10
31 17 10
31 25 10
24 28 9
28 24 9
31 26 9
39 31 9
25 31 9
22 21 8
26 31 7
30 31 7
31 30 7
56 125 7
125 56 7
133 28 7
31 133 7
143 25 7
24 19 6
28 34 6
56 59 6
59 56 6
28 43 6
133 31 6
25 143 6
19 24 5
25 22 5
30 28 5
34 28 5
39 28 5
28 39 5
41 28 5
28 19 5
30 44 5
44 30 5
63 59 5
43 28 5
22 39 5
22 25 4
22 24 4
59 63 4
55 56 4
56 55 4
31 43 4
43 31 4
126 59 4
59 129 4
19 28 4
28 133 4
25 133 4
157 28 4
28 157 4
5 6 3
6 5 3
27 28 3
28 29 3
28 32 3
32 24 3
50 51 3
60 52 3
17 75 3
77 24 3
28 82 3
31 88 3
88 31 3
28 90 3
39 22 3
56 124 3
124 56 3
130 131 3
133 131 3
6 56 3
133 25 3
22 31 3
7 8 2
8 7 2
17 18 2
18 17 2
26 28 2
22 30 2
30 22 2
28 27 2
28 30 2
32 28 2
33 25 2
17 36 2
28 36 2
36 28 2
17 16 2
28 21 2
43 21 2
51 50 2
55 49 2
52 54 2
59 4 2
4 59 2
56 63 2
63 56 2
28 13 2
75 17 2
24 77 2
78 28 2
82 28 2
82 83 2
83 82 2
25 86 2
86 25 2
48 90 2
90 28 2
25 33 2
107 106 2
39 112 2
112 22 2
121 28 2
126 127 2
127 126 2
59 126 2
129 59 2
131 130 2
131 133 2
131 112 2
112 131 2
136 6 2
56 6 2
28 142 2
31 22 2
31 24 2
24 22 2
31 143 2
143 31 2
24 41 2
83 152 2
152 83 2
24 17 2
100 41 2
156 31 2
1 2 1
2 3 1
3 4 1
4 5 1
5 7 1
7 9 1
9 7 1
7 10 1
10 11 1
11 10 1
10 12 1
12 13 1
13 14 1
14 15 1
15 14 1
14 16 1
16 17 1
17 19 1
19 20 1
20 17 1
17 21 1
21 23 1
23 21 1
21 24 1
19 25 1
25 23 1
23 25 1
22 26 1
26 27 1
28 26 1
29 22 1
29 28 1
29 30 1
28 33 1
34 17 1
17 35 1
35 17 1
36 31 1
26 37 1
37 38 1
38 31 1
26 39 1
39 38 1
38 40 1
40 39 1
39 36 1
36 41 1
39 42 1
42 39 1
19 21 1
24 21 1
21 19 1
19 32 1
24 25 1
16 25 1
25 30 1
21 43 1
17 30 1
44 45 1
45 46 1
46 47 1
47 46 1
46 44 1
30 48 1
48 49 1
49 50 1
51 52 1
52 53 1
53 49 1
49 54 1
54 55 1
49 57 1
57 52 1
54 49 1
49 58 1
58 55 1
59 60 1
60 59 1
59 61 1
61 62 1
62 59 1
59 47 1
47 63 1
63 64 1
64 59 1
59 64 1
64 65 1
65 13 1
13 59 1
59 66 1
66 67 1
67 55 1
55 58 1
58 63 1
56 66 1
66 59 1
59 14 1
14 55 1
55 4 1
4 60 1
52 68 1
68 58 1
58 69 1
69 60 1
52 60 1
54 58 1
58 56 1
56 28 1
28 70 1
70 17 1
13 71 1
71 72 1
72 66 1
66 73 1
73 28 1
21 28 1
22 17 1
13 28 1
28 41 1
28 74 1
74 28 1
39 17 1
75 31 1
31 76 1
76 31 1
31 77 1
77 32 1
24 32 1
32 77 1
24 78 1
28 78 1
28 47 1
47 28 1
28 79 1
79 80 1
80 81 1
81 28 1
82 84 1
84 25 1
31 87 1
87 30 1
30 87 1
87 31 1
31 89 1
89 48 1
90 91 1
91 90 1
90 92 1
92 93 1
93 92 1
92 94 1
94 48 1
90 75 1
75 28 1
90 95 1
95 83 1
83 96 1
96 83 1
83 97 1
97 83 1
83 41 1
41 83 1
28 98 1
98 83 1
28 99 1
99 28 1
43 17 1
17 100 1
100 17 1
36 17 1
31 101 1
101 102 1
102 103 1
103 102 1
102 30 1
22 104 1
104 22 1
22 105 1
105 22 1
33 85 1
85 106 1
106 107 1
106 85 1
85 20 1
20 107 1
106 81 1
81 25 1
25 108 1
108 83 1
83 87 1
87 34 1
34 87 1
87 22 1
22 11 1
11 109 1
109 83 1
28 110 1
110 22 1
28 93 1
93 34 1
34 22 1
22 111 1
111 22 1
39 111 1
111 39 1
22 113 1
113 22 1
22 114 1
114 41 1
41 114 1
114 28 1
28 81 1
81 115 1
115 112 1
112 39 1
39 93 1
93 28 1
22 116 1
116 81 1
81 112 1
112 47 1
47 117 1
117 28 1
28 92 1
92 118 1
118 119 1
119 28 1
28 120 1
120 41 1
41 121 1
28 121 1
28 122 1
122 56 1
56 123 1
123 56 1
124 123 1
123 124 1
56 126 1
59 128 1
128 59 1
129 126 1
59 49 1
49 125 1
125 49 1
49 59 1
129 56 1
49 130 1
131 132 1
132 133 1
131 134 1
134 131 1
131 28 1
31 41 1
41 66 1
66 81 1
81 41 1
28 135 1
135 136 1
6 136 1
6 137 1
137 6 1
56 138 1
138 139 1
139 116 1
116 52 1
52 133 1
28 140 1
140 28 1
28 141 1
141 133 1
142 28 1
142 25 1
28 143 1
25 36 1
36 144 1
144 36 1
36 145 1
145 144 1
144 146 1
146 133 1
133 144 1
144 147 1
147 25 1
133 41 1
41 43 1
17 41 1
41 17 1
28 148 1
148 22 1
24 31 1
22 41 1
41 148 1
148 149 1
149 26 1
24 61 1
61 22 1
41 143 1
143 47 1
47 22 1
22 150 1
150 22 1
22 151 1
151 83 1
83 153 1
153 83 1
83 33 1
33 24 1
17 24 1
16 81 1
81 17 1
17 154 1
154 100 1
41 100 1
41 155 1
155 71 1
71 24 1
24 16 1
16 41 1
41 156 1
156 63 1
63 31 1
31 157 1
157 158 1
158 157 1
157 63 1
63 156 1
31 156 1
156 19 1
19 41 1
28 156 1
28 159 1
159 157 1
157 48 1
48 28 1
