27 30 32
21 27 30
27 21 29
30 27 27
24 27 23
16 27 22
27 16 22
82 27 20
27 24 19
27 82 17
24 84 16
84 24 16
20 21 11
48 55 11
55 48 11
27 15 11
15 27 11
16 30 11
30 38 10
30 16 10
30 24 10
23 27 9
27 23 9
30 25 9
38 30 9
24 30 9
21 20 8
25 30 7
29 30 7
30 29 7
55 124 7
124 55 7
132 27 7
30 132 7
143 24 7
23 18 6
27 33 6
55 58 6
58 55 6
27 42 6
132 30 6
24 143 6
18 23 5
24 21 5
29 27 5
33 27 5
38 27 5
27 38 5
40 27 5
27 18 5
29 43 5
43 29 5
62 58 5
42 27 5
21 38 5
21 24 4
21 23 4
58 62 4
54 55 4
55 54 4
30 42 4
42 30 4
125 58 4
58 128 4
18 27 4
27 132 4
24 132 4
157 27 4
27 157 4
4 5 3
5 4 3
26 27 3
27 28 3
27 31 3
31 23 3
49 50 3
59 51 3
16 74 3
76 23 3
27 81 3
30 87 3
87 30 3
27 89 3
38 21 3
55 123 3
123 55 3
129 130 3
132 130 3
5 55 3
132 24 3
21 30 3
6 7 2
7 6 2
16 17 2
17 16 2
25 27 2
21 29 2
29 21 2
27 26 2
27 29 2
31 27 2
32 24 2
16 35 2
27 35 2
35 27 2
16 15 2
27 20 2
42 20 2
50 49 2
54 48 2
51 53 2
58 3 2
3 58 2
55 62 2
62 55 2
27 12 2
74 16 2
23 76 2
77 27 2
81 27 2
81 82 2
82 81 2
24 85 2
85 24 2
47 89 2
89 27 2
24 32 2
106 105 2
38 111 2
111 21 2
120 27 2
125 126 2
126 125 2
58 125 2
128 58 2
130 129 2
130 132 2
130 111 2
111 130 2
136 5 2
55 5 2
27 142 2
30 21 2
30 23 2
23 21 2
30 143 2
143 30 2
23 40 2
82 152 2
152 82 2
23 16 2
99 40 2
156 30 2
1 2 1
2 3 1
3 4 1
4 6 1
6 8 1
8 6 1
6 9 1
9 10 1
10 9 1
9 11 1
11 12 1
12 13 1
13 14 1
14 13 1
13 15 1
15 16 1
16 18 1
18 19 1
19 16 1
16 20 1
20 22 1
22 20 1
20 23 1
18 24 1
24 22 1
22 24 1
21 25 1
25 26 1
27 25 1
28 21 1
28 27 1
28 29 1
27 32 1
33 16 1
16 34 1
34 16 1
35 30 1
25 36 1
36 37 1
37 30 1
25 38 1
38 37 1
37 39 1
39 38 1
38 35 1
35 40 1
38 41 1
41 38 1
18 20 1
23 20 1
20 18 1
18 31 1
23 24 1
15 24 1
24 29 1
20 42 1
16 29 1
43 44 1
44 45 1
45 46 1
46 45 1
45 43 1
29 47 1
47 48 1
48 49 1
50 51 1
51 52 1
52 48 1
48 53 1
53 54 1
48 56 1
56 51 1
53 48 1
48 57 1
57 54 1
58 59 1
59 58 1
58 60 1
60 61 1
61 58 1
58 46 1
46 62 1
62 63 1
63 58 1
58 63 1
63 64 1
64 12 1
12 58 1
58 65 1
65 66 1
66 54 1
54 57 1
57 62 1
55 65 1
65 58 1
58 13 1
13 54 1
54 3 1
3 59 1
51 67 1
67 57 1
57 68 1
68 59 1
51 59 1
53 57 1
57 55 1
55 27 1
27 69 1
69 16 1
12 70 1
70 71 1
71 65 1
65 72 1
72 27 1
20 27 1
21 16 1
12 27 1
27 40 1
27 73 1
73 27 1
38 16 1
74 30 1
30 75 1
75 30 1
30 76 1
76 31 1
23 31 1
31 76 1
23 77 1
27 77 1
27 46 1
46 27 1
27 78 1
78 79 1
79 80 1
80 27 1
81 83 1
83 24 1
30 86 1
86 29 1
29 86 1
86 30 1
30 88 1
88 47 1
89 90 1
90 89 1
89 91 1
91 92 1
92 91 1
91 93 1
93 47 1
89 74 1
74 27 1
89 94 1
94 82 1
82 95 1
95 82 1
82 96 1
96 82 1
82 40 1
40 82 1
27 97 1
97 82 1
27 98 1
98 27 1
42 16 1
16 99 1
99 16 1
35 16 1
30 100 1
100 101 1
101 102 1
102 101 1
101 29 1
21 103 1
103 21 1
21 104 1
104 21 1
32 84 1
84 105 1
105 106 1
105 84 1
84 19 1
19 106 1
105 80 1
80 24 1
24 107 1
107 82 1
82 86 1
86 33 1
33 86 1
86 21 1
21 10 1
10 108 1
108 82 1
27 109 1
109 21 1
27 92 1
92 33 1
33 21 1
21 110 1
110 21 1
38 110 1
110 38 1
21 112 1
112 21 1
21 113 1
113 40 1
40 113 1
113 27 1
27 80 1
80 114 1
114 111 1
111 38 1
38 92 1
92 27 1
21 115 1
115 80 1
80 111 1
111 46 1
46 116 1
116 27 1
27 91 1
91 117 1
117 118 1
118 27 1
27 119 1
119 40 1
40 120 1
27 120 1
27 121 1
121 55 1
55 122 1
122 55 1
123 122 1
122 123 1
55 125 1
58 127 1
127 58 1
128 125 1
58 48 1
48 124 1
124 48 1
48 58 1
128 55 1
48 129 1
130 131 1
131 132 1
130 133 1
133 130 1
130 27 1
30 134 1
134 27 1
30 40 1
40 65 1
65 80 1
80 40 1
27 135 1
135 136 1
5 136 1
5 137 1
137 5 1
55 138 1
138 139 1
139 115 1
115 51 1
51 132 1
27 140 1
140 27 1
27 141 1
141 132 1
142 27 1
142 24 1
27 143 1
24 35 1
35 144 1
144 35 1
35 145 1
145 144 1
144 146 1
146 132 1
132 144 1
144 147 1
147 24 1
132 40 1
40 42 1
16 40 1
40 16 1
27 148 1
148 21 1
23 30 1
21 40 1
40 148 1
148 149 1
149 25 1
23 60 1
60 21 1
40 143 1
143 46 1
46 21 1
21 150 1
150 21 1
21 151 1
151 82 1
82 153 1
153 82 1
82 32 1
32 23 1
16 23 1
15 80 1
80 16 1
16 154 1
154 99 1
40 99 1
40 155 1
155 70 1
70 23 1
23 15 1
15 40 1
40 156 1
156 62 1
62 30 1
30 157 1
157 158 1
158 157 1
157 62 1
62 156 1
30 156 1
156 18 1
18 40 1
27 156 1
27 159 1
159 157 1
157 47 1
47 27 1
