19 20 45
20 19 43
13 8 33
8 13 31
6 8 20
13 3 17
3 13 17
3 20 17
20 3 17
8 6 16
28 13 14
13 28 14
23 55 12
59 20 12
13 20 10
20 8 10
20 6 10
8 20 10
20 59 10
2 3 9
3 2 9
27 20 8
20 60 8
55 23 8
20 81 8
81 20 8
20 26 7
26 20 7
20 27 7
31 3 7
6 20 7
60 20 7
59 61 7
55 20 7
3 31 6
20 55 6
19 13 5
13 19 5
27 26 5
26 3 5
8 3 5
15 31 5
7 8 5
20 31 5
31 40 5
8 23 5
61 59 5
20 61 5
20 64 5
65 20 5
6 7 4
3 17 4
3 26 4
3 27 4
31 15 4
31 13 4
13 31 4
6 13 4
8 7 4
36 20 4
20 37 4
37 20 4
20 40 4
31 20 4
40 31 4
22 8 4
55 8 4
64 59 4
64 20 4
23 8 4
20 65 4
6 3 4
20 43 4
26 27 4
3 83 4
43 13 4
3 6 3
7 6 3
16 3 3
3 16 3
20 13 3
26 19 3
19 26 3
27 3 3
9 8 3
13 6 3
20 36 3
40 20 3
43 6 3
61 20 3
61 64 3
3 74 3
83 3 3
20 23 3
23 20 3
4 3 2
8 9 2
3 18 2
18 3 2
20 22 2
8 31 2
3 19 2
34 15 2
20 44 2
44 20 2
46 47 2
8 22 2
74 75 2
43 20 2
20 91 2
99 43 2
23 19 2
19 23 2
1 2 1
3 4 1
3 5 1
5 4 1
9 10 1
10 7 1
7 11 1
11 7 1
7 12 1
12 13 1
13 14 1
14 13 1
13 15 1
15 8 1
8 16 1
16 13 1
17 13 1
18 19 1
20 18 1
3 21 1
21 22 1
22 13 1
17 23 1
23 24 1
24 13 1
13 24 1
24 25 1
25 19 1
22 21 1
21 3 1
19 27 1
26 13 1
8 17 1
17 26 1
17 3 1
17 22 1
22 20 1
19 12 1
12 28 1
28 29 1
29 13 1
28 30 1
30 28 1
3 8 1
31 8 1
19 32 1
32 19 1
20 33 1
33 20 1
3 34 1
15 34 1
27 19 1
20 9 1
31 6 1
20 35 1
35 36 1
20 38 1
38 39 1
39 20 1
40 41 1
41 40 1
40 13 1
13 40 1
40 42 1
42 6 1
6 43 1
8 43 1
40 45 1
45 46 1
47 46 1
47 48 1
48 31 1
31 49 1
49 21 1
21 50 1
50 51 1
51 6 1
6 52 1
52 9 1
8 53 1
53 22 1
8 54 1
54 9 1
9 23 1
55 13 1
8 27 1
27 8 1
13 56 1
56 8 1
8 55 1
8 57 1
57 22 1
22 55 1
8 58 1
58 59 1
59 60 1
60 59 1
59 62 1
62 59 1
59 63 1
63 59 1
59 64 1
64 65 1
8 66 1
66 55 1
8 67 1
67 68 1
68 13 1
13 23 1
23 69 1
69 23 1
55 70 1
70 55 1
55 22 1
8 11 1
11 13 1
13 71 1
71 8 1
2 13 1
60 65 1
65 72 1
72 20 1
61 73 1
73 20 1
75 3 1
74 76 1
76 3 1
75 74 1
74 3 1
20 77 1
77 78 1
78 20 1
43 55 1
55 3 1
20 79 1
79 27 1
20 80 1
80 20 1
27 81 1
81 27 1
27 13 1
13 27 1
20 82 1
82 20 1
83 84 1
84 43 1
20 67 1
67 85 1
85 86 1
86 67 1
67 87 1
87 85 1
85 88 1
88 85 1
85 89 1
89 88 1
88 67 1
67 20 1
20 90 1
90 20 1
91 92 1
92 85 1
85 87 1
87 88 1
88 91 1
91 89 1
89 93 1
93 88 1
88 94 1
94 95 1
95 93 1
93 89 1
89 20 1
20 96 1
96 20 1
91 95 1
95 96 1
96 97 1
97 91 1
91 88 1
88 20 1
22 43 1
13 98 1
98 99 1
43 99 1
99 13 1
13 43 1
13 99 1
20 100 1
100 6 1
6 101 1
101 23 1
23 22 1
22 23 1
19 6 1
