12 16 24
16 12 21
17 12 20
12 17 19
19 12 14
12 19 13
14 16 11
16 14 11
12 13 10
13 12 9
21 16 9
16 21 9
15 17 9
16 4 8
15 16 7
12 15 7
15 12 7
17 15 7
10 28 7
4 16 7
29 12 7
16 15 6
28 10 6
12 29 6
16 31 6
31 16 6
14 15 5
20 19 5
12 21 5
12 27 5
27 12 5
12 28 5
28 12 5
15 14 4
21 12 4
17 16 4
25 12 4
12 25 4
21 4 4
4 12 4
16 33 4
12 10 3
30 12 3
16 17 3
4 21 3
16 30 3
30 16 3
10 12 3
12 4 3
33 16 3
19 20 3
11 12 2
18 19 2
19 18 2
13 16 2
24 17 2
26 17 2
12 30 2
31 12 2
12 31 2
16 32 2
1 2 1
2 3 1
3 4 1
4 5 1
5 6 1
6 2 1
2 7 1
7 8 1
8 7 1
7 9 1
9 10 1
10 11 1
12 11 1
13 14 1
17 6 1
6 18 1
18 20 1
19 21 1
16 22 1
22 15 1
15 23 1
23 15 1
16 13 1
16 24 1
17 24 1
17 25 1
25 26 1
26 12 1
12 26 1
17 26 1
28 29 1
29 28 1
28 30 1
30 17 1
17 30 1
30 19 1
21 13 1
4 30 1
16 10 1
32 16 1
32 12 1
33 15 1
12 5 1
5 34 1
34 25 1
25 35 1
35 29 1
12 20 1
