13 5 125
5 13 123
4 5 88
5 4 87
13 4 41
4 13 40
10 5 18
5 10 15
30 13 12
64 13 12
13 30 11
13 64 11
13 61 10
61 13 10
29 5 5
5 29 4
13 10 3
33 13 3
57 13 3
13 32 2
32 13 2
13 33 2
38 13 2
43 13 2
4 46 2
13 53 2
53 13 2
13 54 2
54 13 2
1 2 1
2 3 1
3 4 1
5 6 1
6 4 1
5 7 1
7 4 1
4 8 1
8 4 1
4 9 1
9 5 1
5 11 1
11 5 1
4 12 1
12 4 1
5 12 1
12 5 1
5 14 1
14 5 1
13 15 1
15 5 1
5 16 1
16 4 1
5 17 1
17 5 1
5 18 1
18 5 1
13 19 1
19 20 1
20 13 1
4 21 1
21 5 1
13 22 1
22 23 1
23 13 1
10 24 1
24 25 1
25 26 1
26 27 1
27 10 1
5 28 1
28 29 1
5 30 1
5 31 1
31 13 1
5 33 1
33 30 1
13 34 1
34 13 1
30 33 1
5 35 1
35 13 1
13 36 1
36 5 1
13 37 1
37 38 1
13 39 1
39 5 1
13 40 1
40 13 1
13 41 1
41 42 1
42 4 1
4 43 1
13 44 1
44 5 1
4 45 1
45 13 1
46 4 1
5 47 1
47 30 1
30 5 1
4 48 1
48 4 1
5 49 1
49 13 1
5 50 1
50 13 1
5 51 1
51 4 1
5 52 1
52 13 1
13 38 1
5 55 1
55 13 1
5 56 1
56 5 1
5 57 1
46 5 1
4 58 1
58 13 1
13 59 1
59 4 1
13 60 1
60 13 1
61 18 1
18 61 1
5 62 1
62 5 1
5 43 1
13 63 1
63 61 1
61 57 1
13 57 1
13 65 1
65 64 1
13 66 1
66 5 1
13 67 1
67 13 1
