3 21 105
21 3 104
3 13 14
13 3 14
3 18 8
18 3 8
23 18 4
3 16 3
16 3 3
18 23 3
33 3 3
3 39 3
3 5 2
5 3 2
3 8 2
8 3 2
3 14 2
3 25 2
3 33 2
3 35 2
35 3 2
39 3 2
40 3 2
3 40 2
23 44 2
1 2 1
2 3 1
3 4 1
4 3 1
3 6 1
6 7 1
7 3 1
3 9 1
9 3 1
3 10 1
10 3 1
3 11 1
11 12 1
12 3 1
14 3 1
3 15 1
15 3 1
3 17 1
17 18 1
18 19 1
19 20 1
20 3 1
14 21 1
3 22 1
22 3 1
18 24 1
24 3 1
25 21 1
21 26 1
26 27 1
27 13 1
13 28 1
28 21 1
3 28 1
28 3 1
21 29 1
29 3 1
3 30 1
30 18 1
3 31 1
31 23 1
18 32 1
32 18 1
21 33 1
18 34 1
34 3 1
21 23 1
23 3 1
3 36 1
36 3 1
3 37 1
37 5 1
5 37 1
37 3 1
3 38 1
38 3 1
25 3 1
39 40 1
40 41 1
41 3 1
3 42 1
42 3 1
3 43 1
43 23 1
23 33 1
33 23 1
44 23 1
44 21 1
21 45 1
45 3 1
3 46 1
46 3 1
