8 12 20
12 8 20
12 13 17
5 11 15
10 8 14
23 6 13
13 12 13
11 5 11
6 23 11
8 10 10
7 8 8
7 10 8
8 9 7
10 7 6
8 7 6
13 5 5
9 10 4
11 12 4
9 8 4
27 25 4
16 17 3
9 7 3
11 13 3
13 11 3
6 8 3
8 6 3
27 6 3
5 29 3
6 5 2
5 7 2
14 15 2
17 16 2
10 9 2
26 27 2
27 26 2
28 27 2
12 5 2
5 12 2
27 23 2
6 12 2
8 11 2
25 27 2
8 27 2
25 11 2
7 27 2
6 27 2
27 8 2
29 5 2
29 27 2
1 2 1
2 3 1
3 4 1
4 5 1
5 6 1
10 5 1
11 14 1
15 14 1
15 16 1
17 5 1
5 18 1
18 8 1
7 9 1
7 19 1
19 6 1
6 11 1
11 20 1
20 9 1
9 5 1
11 21 1
21 22 1
22 6 1
23 8 1
8 24 1
24 7 1
7 24 1
24 6 1
6 25 1
25 26 1
26 28 1
27 28 1
27 13 1
10 6 1
12 9 1
8 29 1
29 9 1
5 10 1
6 30 1
30 23 1
6 26 1
26 6 1
6 31 1
31 27 1
23 27 1
13 10 1
5 27 1
25 8 1
11 27 1
27 12 1
12 11 1
11 25 1
11 7 1
27 7 1
7 12 1
8 23 1
12 7 1
9 27 1
27 32 1
32 7 1
8 33 1
33 11 1
12 27 1
6 13 1
11 6 1
27 29 1
