10 35 10
35 10 10
20 21 8
21 20 8
10 2 7
2 10 6
30 31 5
31 30 5
5 10 4
4 3 3
3 5 3
10 5 3
10 17 3
22 23 3
23 24 3
34 37 3
37 34 3
2 3 2
3 4 2
10 11 2
5 4 2
10 16 2
20 22 2
25 21 2
27 10 2
32 33 2
34 10 2
2 5 2
17 30 2
5 2 2
17 10 2
21 17 2
10 42 2
1 2 1
5 6 1
6 7 1
7 8 1
8 9 1
9 10 1
11 12 1
12 10 1
10 13 1
13 14 1
14 10 1
4 10 1
10 4 1
10 15 1
15 10 1
16 2 1
2 16 1
16 10 1
17 16 1
16 4 1
4 2 1
2 18 1
18 19 1
19 20 1
24 25 1
21 25 1
25 26 1
26 25 1
21 10 1
10 27 1
11 10 1
10 28 1
28 5 1
10 20 1
20 10 1
2 29 1
29 30 1
30 10 1
10 32 1
33 32 1
32 34 1
34 3 1
35 2 1
35 20 1
24 2 1
2 34 1
10 36 1
36 35 1
5 34 1
34 32 1
33 34 1
17 38 1
38 17 1
30 17 1
17 2 1
2 17 1
30 21 1
21 2 1
2 21 1
21 22 1
24 21 1
21 19 1
19 10 1
2 39 1
39 17 1
17 5 1
2 40 1
40 10 1
10 41 1
41 27 1
4 35 1
10 21 1
21 35 1
35 21 1
17 42 1
42 2 1
42 10 1
42 21 1
21 43 1
43 21 1
21 44 1
44 17 1
17 21 1
16 3 1
3 2 1
3 45 1
