40 27 26
37 40 22
40 37 22
13 40 19
27 40 19
15 14 17
12 13 16
14 15 16
13 12 14
46 22 14
22 46 14
21 22 12
22 21 12
40 13 12
34 27 9
27 34 9
40 46 8
40 22 8
27 17 7
22 37 7
24 40 7
37 24 6
12 38 6
22 40 6
40 24 6
18 169 6
13 24 5
24 13 5
14 40 5
15 40 5
46 40 5
40 18 5
27 15 5
22 13 5
17 27 5
169 18 5
17 18 4
27 31 4
31 27 4
37 22 4
37 15 4
38 12 4
40 15 4
13 27 4
27 13 4
15 27 4
27 37 4
18 226 4
13 22 4
24 37 3
38 13 3
18 40 3
14 22 3
40 14 3
14 27 3
40 99 3
27 6 3
78 40 3
6 27 3
226 18 3
248 40 3
264 17 3
17 264 3
11 10 2
10 12 2
13 14 2
22 24 2
26 27 2
27 26 2
18 17 2
10 17 2
15 22 2
12 11 2
11 12 2
46 37 2
22 14 2
22 49 2
18 81 2
46 65 2
22 98 2
112 12 2
24 19 2
15 37 2
138 38 2
99 165 2
165 40 2
27 18 2
18 27 2
185 169 2
169 13 2
40 6 2
185 18 2
27 185 2
6 78 2
40 248 2
37 248 2
17 271 2
271 17 2
1 2 1
2 3 1
3 4 1
4 5 1
5 6 1
6 7 1
7 8 1
8 6 1
6 9 1
9 10 1
10 11 1
15 16 1
16 15 1
15 17 1
18 19 1
19 17 1
17 20 1
20 21 1
22 23 1
23 22 1
24 21 1
22 25 1
25 26 1
26 28 1
28 27 1
17 29 1
29 30 1
30 27 1
27 32 1
32 10 1
10 33 1
33 10 1
10 34 1
34 10 1
10 35 1
35 27 1
27 35 1
35 10 1
17 26 1
26 36 1
36 37 1
37 9 1
9 11 1
11 38 1
24 6 1
6 38 1
38 39 1
39 24 1
40 41 1
41 42 1
42 13 1
13 43 1
43 13 1
40 44 1
44 45 1
45 40 1
40 47 1
47 24 1
24 48 1
48 18 1
18 37 1
18 49 1
49 37 1
37 49 1
49 40 1
22 50 1
50 22 1
22 51 1
51 22 1
46 14 1
46 11 1
11 52 1
52 22 1
22 17 1
17 22 1
49 53 1
53 22 1
49 54 1
54 14 1
22 55 1
55 56 1
56 57 1
57 34 1
34 55 1
55 27 1
27 58 1
58 59 1
59 60 1
60 61 1
61 62 1
62 63 1
63 64 1
64 65 1
65 66 1
66 67 1
67 12 1
13 11 1
12 37 1
37 68 1
68 13 1
13 34 1
34 13 1
17 37 1
13 69 1
69 70 1
70 71 1
71 22 1
22 72 1
72 73 1
73 74 1
74 75 1
75 76 1
76 77 1
77 78 1
78 34 1
27 79 1
79 22 1
22 80 1
80 37 1
81 37 1
21 82 1
82 21 1
21 83 1
83 22 1
21 46 1
46 84 1
84 46 1
46 85 1
85 46 1
65 46 1
65 22 1
37 46 1
37 86 1
86 87 1
87 88 1
88 89 1
89 40 1
13 90 1
90 91 1
91 92 1
92 93 1
93 94 1
94 95 1
95 90 1
90 22 1
22 63 1
63 96 1
96 40 1
27 22 1
21 97 1
97 21 1
98 99 1
99 100 1
100 101 1
101 15 1
15 24 1
24 98 1
98 102 1
102 27 1
27 103 1
103 104 1
104 105 1
105 12 1
12 106 1
106 12 1
12 27 1
27 12 1
12 24 1
13 107 1
107 12 1
12 14 1
27 108 1
108 18 1
18 34 1
34 109 1
109 110 1
110 111 1
111 112 1
12 113 1
113 6 1
6 114 1
114 22 1
22 115 1
115 116 1
116 46 1
46 117 1
117 37 1
37 13 1
99 118 1
118 119 1
119 40 1
34 15 1
27 14 1
40 120 1
120 40 1
40 121 1
121 13 1
19 122 1
122 123 1
123 124 1
124 24 1
19 24 1
37 99 1
99 14 1
14 99 1
99 37 1
37 14 1
37 6 1
6 125 1
125 126 1
126 127 1
127 128 1
128 129 1
129 13 1
24 99 1
99 35 1
35 22 1
37 26 1
26 37 1
24 10 1
10 130 1
130 27 1
27 131 1
131 132 1
132 133 1
133 134 1
134 135 1
135 27 1
6 65 1
65 17 1
81 136 1
136 13 1
40 65 1
65 137 1
137 138 1
138 139 1
139 140 1
140 141 1
141 142 1
142 143 1
143 144 1
144 12 1
12 40 1
40 145 1
145 146 1
146 38 1
38 147 1
147 14 1
14 148 1
148 38 1
38 149 1
149 150 1
150 138 1
13 138 1
38 151 1
151 152 1
152 13 1
38 95 1
95 38 1
38 27 1
27 153 1
153 154 1
154 12 1
12 155 1
155 38 1
13 156 1
156 27 1
27 157 1
157 158 1
158 13 1
40 10 1
17 10 1
10 14 1
14 62 1
62 121 1
121 113 1
113 159 1
159 160 1
160 14 1
14 161 1
161 162 1
162 163 1
163 65 1
65 164 1
164 22 1
22 124 1
124 40 1
99 40 1
27 166 1
166 27 1
37 19 1
19 37 1
15 167 1
167 40 1
40 165 1
40 168 1
168 18 1
169 27 1
169 14 1
37 27 1
24 27 1
27 124 1
124 37 1
27 170 1
170 27 1
6 171 1
171 13 1
13 172 1
172 40 1
40 173 1
173 10 1
10 138 1
138 22 1
46 174 1
174 46 1
22 175 1
175 15 1
15 130 1
130 15 1
15 176 1
176 177 1
177 99 1
99 13 1
13 178 1
178 179 1
179 177 1
177 40 1
46 180 1
180 40 1
40 181 1
181 40 1
46 182 1
182 13 1
40 183 1
183 15 1
15 78 1
40 184 1
184 118 1
118 184 1
184 59 1
59 22 1
46 59 1
59 78 1
78 6 1
6 185 1
13 10 1
10 6 1
6 186 1
186 40 1
15 13 1
37 78 1
27 187 1
187 59 1
59 73 1
73 188 1
188 185 1
185 19 1
19 189 1
189 78 1
78 190 1
190 191 1
191 27 1
6 124 1
124 19 1
19 78 1
78 46 1
98 192 1
192 193 1
193 185 1
18 26 1
26 194 1
194 98 1
98 195 1
195 196 1
196 27 1
40 17 1
185 81 1
81 15 1
15 197 1
197 22 1
22 27 1
27 81 1
81 198 1
198 14 1
14 199 1
199 14 1
14 185 1
185 200 1
200 98 1
98 169 1
169 15 1
18 201 1
201 18 1
18 59 1
59 169 1
169 202 1
202 169 1
13 169 1
27 203 1
203 78 1
27 204 1
204 27 1
37 185 1
169 185 1
185 205 1
205 99 1
165 13 1
13 206 1
206 27 1
27 165 1
165 99 1
99 182 1
182 165 1
165 207 1
207 27 1
27 208 1
208 165 1
165 6 1
6 19 1
19 185 1
185 209 1
209 210 1
210 99 1
99 211 1
211 212 1
212 169 1
169 213 1
213 214 1
214 169 1
169 215 1
215 169 1
169 26 1
26 185 1
185 216 1
216 217 1
217 78 1
78 185 1
185 26 1
26 12 1
12 218 1
218 12 1
12 219 1
219 12 1
13 185 1
185 12 1
12 220 1
220 221 1
221 222 1
222 223 1
223 224 1
224 112 1
12 81 1
81 13 1
38 98 1
98 225 1
225 46 1
37 226 1
226 227 1
227 6 1
6 228 1
228 6 1
78 227 1
227 229 1
229 40 1
37 230 1
230 6 1
78 231 1
231 22 1
22 232 1
232 46 1
22 233 1
233 234 1
234 27 1
27 235 1
235 236 1
236 18 1
18 237 1
237 238 1
238 27 1
27 239 1
239 240 1
240 27 1
17 241 1
241 15 1
14 242 1
242 15 1
14 6 1
27 24 1
24 243 1
243 226 1
226 244 1
244 18 1
226 169 1
169 6 1
6 118 1
118 24 1
24 245 1
245 38 1
38 40 1
24 81 1
81 246 1
246 247 1
247 98 1
98 248 1
248 37 1
248 249 1
249 226 1
226 183 1
183 22 1
22 250 1
250 251 1
251 22 1
22 252 1
252 253 1
253 130 1
130 254 1
254 22 1
14 255 1
255 256 1
256 257 1
257 18 1
18 151 1
151 18 1
18 6 1
6 258 1
258 175 1
175 259 1
259 37 1
37 260 1
260 37 1
40 261 1
261 40 1
27 262 1
262 263 1
263 27 1
27 211 1
211 264 1
264 265 1
265 266 1
266 267 1
267 268 1
268 269 1
269 264 1
17 270 1
270 17 1
264 81 1
81 17 1
17 272 1
272 12 1
13 258 1
258 273 1
273 274 1
274 13 1
22 275 1
275 276 1
276 248 1
248 95 1
95 153 1
153 277 1
277 278 1
278 11 1
11 22 1
