23 1 91
1 23 86
7 23 37
23 6 35
23 7 32
1 8 29
6 7 28
8 1 28
6 23 28
6 1 25
7 1 24
1 7 24
7 6 24
1 6 23
1 2 12
2 1 12
10 6 10
6 10 8
26 23 7
1 26 6
23 26 6
8 7 5
12 1 5
24 23 5
26 1 5
7 8 4
6 11 4
1 12 4
6 8 4
41 6 4
6 41 4
9 1 4
8 6 3
11 6 3
1 11 3
11 1 3
20 8 3
22 1 3
8 23 3
23 24 3
1 10 3
1 9 3
10 11 2
6 12 2
12 6 2
11 12 2
1 16 2
16 8 2
8 20 2
1 20 2
1 22 2
1 24 2
8 24 2
24 8 2
23 25 2
1 3 1
3 1 1
1 4 1
4 5 1
5 1 1
7 9 1
9 7 1
11 10 1
12 11 1
6 13 1
13 6 1
1 13 1
13 1 1
1 14 1
14 1 1
1 15 1
15 1 1
1 17 1
17 18 1
18 17 1
17 19 1
19 16 1
16 17 1
17 1 1
20 1 1
16 21 1
21 16 1
16 22 1
8 16 1
25 23 1
25 1 1
1 27 1
27 26 1
23 28 1
28 23 1
23 29 1
29 23 1
23 30 1
30 23 1
1 31 1
31 1 1
8 32 1
32 33 1
33 7 1
7 33 1
33 1 1
8 34 1
34 8 1
23 35 1
35 36 1
36 23 1
1 37 1
37 38 1
38 37 1
37 1 1
1 38 1
38 1 1
6 30 1
30 6 1
23 39 1
39 23 1
26 6 1
1 40 1
40 23 1
23 8 1
11 23 1
10 41 1
41 42 1
42 43 1
43 10 1
6 43 1
43 41 1
41 10 1
10 24 1
24 44 1
44 23 1
7 45 1
45 7 1
6 9 1
