8 13 51
19 8 44
13 8 43
8 19 43
14 8 13
7 8 12
8 14 12
8 7 9
8 15 9
22 8 9
15 8 8
13 15 7
15 13 7
8 22 7
13 21 6
21 13 6
24 8 6
13 14 5
19 14 5
14 13 5
13 24 5
8 24 5
24 13 5
13 16 4
13 22 4
14 19 4
16 8 3
15 24 3
21 8 3
8 21 3
14 15 3
15 14 3
6 7 2
8 5 2
18 8 2
20 13 2
24 15 2
13 25 2
25 13 2
13 29 2
29 13 2
8 31 2
23 22 2
22 19 2
34 19 2
19 22 2
8 16 2
16 19 2
19 44 2
44 19 2
13 49 2
49 13 2
55 56 2
1 2 1
2 3 1
3 4 1
4 5 1
5 6 1
8 9 1
9 6 1
5 8 1
8 10 1
10 8 1
8 11 1
11 7 1
5 12 1
12 8 1
8 17 1
17 18 1
18 19 1
19 18 1
8 18 1
14 20 1
22 21 1
13 23 1
23 8 1
13 26 1
26 19 1
19 27 1
27 13 1
13 28 1
28 8 1
13 30 1
30 19 1
31 13 1
22 13 1
22 16 1
22 32 1
32 22 1
22 23 1
8 23 1
22 33 1
33 8 1
8 34 1
19 34 1
8 35 1
35 19 1
8 36 1
36 8 1
13 37 1
37 21 1
21 38 1
38 13 1
13 39 1
39 40 1
40 8 1
8 39 1
39 8 1
19 41 1
41 8 1
15 42 1
42 13 1
24 14 1
14 24 1
13 43 1
43 8 1
31 8 1
19 45 1
45 8 1
19 13 1
16 46 1
46 24 1
24 19 1
19 47 1
47 44 1
44 22 1
8 48 1
48 15 1
16 41 1
41 13 1
13 50 1
50 19 1
19 51 1
51 14 1
14 52 1
52 53 1
53 54 1
54 53 1
53 55 1
56 55 1
56 13 1
13 20 1
21 14 1
13 57 1
57 14 1
14 17 1
17 19 1
19 58 1
58 59 1
