5 6 46
6 5 42
2 6 36
6 4 34
4 6 33
6 2 33
2 8 17
8 2 17
3 6 16
6 3 15
3 2 14
17 2 14
2 17 14
12 2 13
5 2 12
2 3 11
4 3 11
6 12 11
2 12 11
18 6 11
2 5 11
3 4 10
6 13 10
6 18 10
2 4 9
4 5 9
6 11 9
13 6 9
11 6 8
12 6 8
4 2 7
17 15 6
15 17 6
5 4 5
6 17 5
17 4 5
5 3 4
6 9 4
4 17 4
3 5 3
9 6 3
12 13 3
12 14 3
25 17 3
26 2 3
13 2 2
14 12 2
17 25 2
2 26 2
17 6 2
1 2 1
4 7 1
7 4 1
8 5 1
9 10 1
10 6 1
11 5 1
14 6 1
13 12 1
13 8 1
6 8 1
2 15 1
15 16 1
16 17 1
17 18 1
13 18 1
18 13 1
2 19 1
19 12 1
2 20 1
20 6 1
8 21 1
21 8 1
8 22 1
22 3 1
17 5 1
2 10 1
10 4 1
5 23 1
23 4 1
4 23 1
23 6 1
17 24 1
24 17 1
17 3 1
6 25 1
17 12 1
26 17 1
17 26 1
6 26 1
2 27 1
27 5 1
5 28 1
28 27 1
27 28 1
