11 2 47
2 11 40
4 2 14
2 3 13
2 4 13
2 21 13
2 31 13
21 2 12
3 2 10
5 2 9
22 2 9
3 11 8
2 22 8
21 11 8
2 7 8
20 2 7
31 2 7
2 20 6
2 27 6
11 21 6
28 2 6
7 2 6
11 7 6
2 5 5
11 3 5
11 4 5
4 11 5
27 2 4
31 11 4
22 11 4
11 23 4
23 11 4
31 28 4
21 5 3
2 23 3
23 2 3
2 13 3
7 22 3
31 7 3
11 22 3
28 11 3
7 11 3
11 31 3
37 11 3
11 37 3
21 31 3
10 11 2
11 10 2
16 15 2
27 28 2
28 27 2
27 11 2
2 29 2
29 18 2
31 32 2
32 31 2
27 5 2
2 34 2
7 31 2
31 21 2
21 22 2
2 28 2
7 4 2
7 28 2
2 37 2
37 23 2
18 2 2
29 31 2
13 18 2
18 13 2
1 2 1
4 3 1
3 5 1
5 6 1
6 7 1
7 8 1
8 9 1
9 10 1
11 12 1
12 11 1
10 13 1
13 14 1
14 11 1
2 14 1
14 3 1
11 15 1
15 16 1
15 17 1
17 18 1
18 16 1
15 18 1
18 17 1
17 11 1
3 13 1
13 19 1
19 20 1
20 19 1
19 2 1
5 21 1
22 18 1
18 24 1
24 25 1
25 22 1
23 26 1
26 27 1
27 29 1
29 2 1
18 29 1
29 11 1
2 19 1
19 30 1
30 31 1
31 27 1
5 27 1
27 21 1
11 27 1
5 18 1
18 5 1
11 5 1
13 11 1
2 33 1
33 2 1
34 35 1
35 36 1
36 34 1
34 31 1
31 23 1
23 37 1
37 7 1
22 7 1
22 28 1
22 21 1
23 21 1
31 22 1
7 21 1
11 9 1
9 38 1
38 39 1
39 34 1
34 20 1
11 18 1
4 21 1
34 10 1
10 2 1
22 40 1
40 18 1
31 41 1
41 31 1
11 29 1
11 42 1
42 11 1
31 4 1
13 40 1
40 24 1
24 11 1
13 2 1
11 28 1
28 21 1
2 38 1
38 34 1
34 3 1
2 43 1
43 2 1
3 44 1
44 45 1
45 2 1
11 46 1
46 2 1
11 34 1
34 2 1
31 40 1
40 21 1
2 47 1
47 13 1
13 46 1
46 11 1
21 28 1
28 31 1
31 29 1
18 34 1
34 21 1
21 48 1
48 49 1
49 11 1
2 50 1
