13 3 18
3 13 18
3 5 17
5 3 17
5 17 9
3 9 8
9 3 8
17 5 8
3 18 8
18 3 8
13 5 8
11 3 6
5 13 6
13 29 6
15 13 5
5 25 5
3 25 5
25 5 5
17 13 5
13 17 5
29 13 5
10 11 4
3 11 4
13 15 4
22 21 4
25 3 4
21 22 3
25 13 3
9 10 2
3 10 2
11 10 2
19 18 2
11 22 2
22 3 2
26 13 2
13 25 2
1 2 1
2 3 1
3 4 1
4 3 1
5 6 1
6 5 1
5 7 1
7 3 1
3 8 1
8 3 1
10 3 1
3 12 1
12 13 1
13 14 1
14 15 1
13 16 1
16 5 1
17 3 1
3 19 1
18 19 1
18 20 1
20 18 1
18 21 1
21 11 1
21 9 1
9 22 1
3 22 1
22 11 1
3 6 1
6 23 1
23 24 1
24 13 1
13 9 1
9 18 1
18 9 1
10 9 1
9 11 1
11 9 1
3 17 1
17 26 1
13 26 1
5 27 1
27 13 1
13 28 1
28 13 1
25 29 1
29 25 1
29 3 1
3 30 1
30 31 1
31 32 1
32 3 1
