2 10 20
10 2 19
17 10 12
10 17 12
2 18 10
6 3 9
18 2 9
6 8 8
7 5 8
3 6 8
6 22 8
22 6 8
3 24 8
24 3 8
2 25 8
5 7 7
16 17 7
25 2 7
5 6 6
8 6 6
12 10 6
10 12 6
17 16 6
18 15 6
2 21 6
21 2 6
6 7 5
7 6 5
15 18 5
6 5 4
8 7 4
17 12 4
2 27 4
27 2 4
10 11 3
7 8 3
12 17 3
10 21 3
21 10 3
4 3 2
3 5 2
11 12 2
13 10 2
10 14 2
14 10 2
10 13 2
11 10 2
3 2 2
8 3 2
1 2 1
2 3 1
3 4 1
8 5 1
5 9 1
9 2 1
12 13 1
14 12 1
12 14 1
13 11 1
12 15 1
15 12 1
12 7 1
8 10 1
10 8 1
5 2 1
2 16 1
12 18 1
15 6 1
6 18 1
18 19 1
19 20 1
20 6 1
7 4 1
2 6 1
6 23 1
23 2 1
2 8 1
3 8 1
25 26 1
26 2 1
18 28 1
