19 12 45
12 19 42
2 12 27
12 2 27
19 2 24
2 19 23
9 2 13
2 9 11
2 36 10
36 2 10
2 8 9
9 19 9
8 2 8
12 9 8
19 9 8
2 40 8
9 12 7
12 20 7
40 2 7
20 12 5
20 19 4
19 20 3
2 20 3
20 2 3
23 24 3
2 33 3
41 2 3
2 41 3
5 19 2
2 15 2
24 23 2
24 12 2
12 30 2
30 12 2
20 30 2
33 2 2
46 12 2
54 12 2
12 54 2
1 2 1
2 3 1
3 4 1
4 5 1
5 6 1
6 7 1
7 2 1
8 9 1
9 10 1
10 11 1
11 9 1
12 13 1
13 12 1
2 14 1
14 15 1
15 2 1
9 16 1
16 2 1
9 17 1
17 18 1
18 19 1
12 5 1
15 19 1
12 21 1
21 12 1
20 22 1
22 23 1
12 24 1
2 25 1
25 19 1
19 15 1
15 20 1
2 5 1
19 26 1
26 19 1
2 27 1
27 23 1
23 28 1
28 29 1
29 28 1
28 23 1
23 2 1
2 29 1
29 19 1
30 20 1
30 19 1
2 31 1
31 32 1
32 2 1
33 34 1
34 2 1
15 35 1
35 2 1
2 37 1
37 38 1
38 37 1
37 15 1
15 39 1
39 2 1
12 40 1
40 41 1
40 42 1
42 40 1
40 43 1
43 12 1
19 44 1
44 9 1
12 29 1
29 15 1
15 23 1
23 45 1
45 2 1
12 46 1
19 47 1
47 46 1
12 48 1
48 12 1
41 9 1
2 49 1
49 12 1
12 49 1
49 9 1
19 50 1
50 51 1
51 2 1
12 52 1
52 35 1
35 53 1
53 2 1
2 35 1
35 12 1
9 54 1
54 19 1
19 55 1
55 56 1
56 9 1
