4 6 70
6 4 62
9 6 28
6 9 26
4 9 25
9 4 22
16 4 20
4 47 20
47 4 20
9 16 18
16 9 17
4 16 15
19 4 11
4 19 11
28 26 11
33 9 11
26 28 10
9 33 10
4 8 9
8 4 9
21 24 9
24 21 9
9 26 8
4 49 8
26 9 7
4 5 6
26 27 6
6 16 6
23 4 6
5 4 5
6 7 5
16 19 5
9 19 5
13 21 5
27 26 5
4 23 5
41 16 5
16 41 5
48 49 5
49 4 5
49 48 5
7 6 4
19 16 4
21 4 4
22 6 4
23 22 4
6 19 4
42 4 4
23 9 4
4 48 4
11 1 3
4 1 3
6 1 3
4 11 3
11 4 3
19 9 3
22 16 3
27 28 3
9 23 3
16 21 3
23 6 3
4 42 3
6 23 3
48 4 3
1 4 2
1 6 2
6 11 2
11 14 2
1 11 2
15 16 2
6 22 2
9 22 2
16 23 2
22 23 2
6 21 2
21 22 2
22 9 2
28 27 2
16 6 2
21 13 2
33 22 2
22 33 2
21 9 2
24 16 2
9 21 2
19 23 2
4 40 2
19 45 2
47 9 2
49 16 2
9 49 2
1 2 1
2 3 1
3 4 1
5 6 1
7 4 1
6 10 1
10 11 1
11 12 1
12 13 1
13 11 1
11 6 1
14 1 1
1 14 1
14 4 1
14 11 1
1 15 1
15 4 1
6 15 1
16 17 1
17 9 1
9 15 1
9 17 1
17 18 1
18 9 1
19 20 1
20 13 1
6 20 1
20 19 1
4 22 1
23 16 1
22 24 1
24 22 1
21 25 1
25 21 1
26 29 1
29 6 1
4 26 1
26 30 1
30 26 1
26 6 1
1 21 1
21 1 1
1 13 1
21 31 1
31 32 1
32 4 1
16 22 1
22 13 1
22 4 1
1 22 1
4 33 1
33 34 1
34 33 1
22 35 1
35 22 1
6 33 1
33 4 1
4 30 1
30 6 1
6 36 1
36 21 1
9 24 1
16 24 1
21 37 1
37 38 1
38 9 1
21 39 1
39 4 1
19 6 1
40 4 1
40 41 1
41 9 1
21 16 1
21 42 1
9 43 1
43 42 1
42 44 1
44 21 1
4 21 1
21 23 1
45 4 1
23 45 1
45 23 1
1 46 1
46 1 1
47 19 1
19 47 1
45 21 1
21 47 1
16 47 1
9 47 1
47 49 1
49 9 1
9 50 1
50 9 1
49 47 1
47 51 1
51 4 1
49 52 1
52 9 1
49 53 1
53 4 1
48 9 1
19 21 1
9 54 1
54 6 1
16 55 1
55 24 1
24 6 1
9 56 1
56 24 1
24 9 1
19 24 1
24 4 1
6 47 1
47 57 1
