8 3 84
3 8 74
4 3 27
3 4 22
3 13 22
3 32 19
32 3 19
5 3 18
3 5 16
13 3 15
14 3 13
3 14 12
20 3 9
3 21 9
27 3 9
14 8 8
3 20 8
3 27 8
27 8 8
8 14 7
13 14 7
21 3 7
8 27 7
13 8 6
21 24 6
5 13 6
3 2 5
14 13 5
24 21 5
13 5 5
8 13 3
2 21 3
20 2 3
2 8 3
21 13 3
13 21 3
3 38 3
21 48 3
2 5 2
3 7 2
7 8 2
14 4 2
4 5 2
5 4 2
19 17 2
17 3 2
3 17 2
21 22 2
22 21 2
21 8 2
8 2 2
21 14 2
3 24 2
14 20 2
27 33 2
33 27 2
8 38 2
38 8 2
38 3 2
48 21 2
1 2 1
2 3 1
3 6 1
6 3 1
7 3 1
8 7 1
8 9 1
9 4 1
3 10 1
10 4 1
3 11 1
11 3 1
3 12 1
12 13 1
13 12 1
12 14 1
4 14 1
3 15 1
15 3 1
3 16 1
16 4 1
14 17 1
17 18 1
18 19 1
17 19 1
17 20 1
14 23 1
23 14 1
24 13 1
21 25 1
25 3 1
21 26 1
26 21 1
20 14 1
2 27 1
27 13 1
13 28 1
28 29 1
29 28 1
28 27 1
27 30 1
30 27 1
27 31 1
31 27 1
27 32 1
32 27 1
3 34 1
34 9 1
9 5 1
13 35 1
35 8 1
8 20 1
2 20 1
3 36 1
36 37 1
37 8 1
2 4 1
24 39 1
39 13 1
13 26 1
26 13 1
13 24 1
24 38 1
38 40 1
40 36 1
36 8 1
8 5 1
5 2 1
32 21 1
13 41 1
41 21 1
21 32 1
38 42 1
42 3 1
3 43 1
43 44 1
44 45 1
45 44 1
44 3 1
3 46 1
46 3 1
13 47 1
47 8 1
3 33 1
33 3 1
3 9 1
9 8 1
24 3 1
13 27 1
14 21 1
48 14 1
8 44 1
