13 2 136
2 13 128
27 2 38
10 2 36
2 27 36
2 10 35
2 23 23
2 3 21
23 2 21
2 11 20
11 2 19
3 2 18
7 2 16
2 30 15
13 10 14
10 13 13
30 2 13
30 13 12
2 7 11
13 30 10
11 10 9
10 11 9
2 8 7
8 2 5
23 13 5
11 13 4
33 36 4
2 33 4
5 2 3
25 13 3
13 25 3
2 29 3
10 23 3
34 33 3
36 33 3
33 2 3
33 45 3
45 2 3
3 4 2
4 3 2
3 5 2
8 7 2
2 14 2
16 11 2
13 11 2
20 21 2
21 20 2
13 23 2
25 2 2
2 25 2
25 27 2
11 29 2
29 13 2
23 10 2
33 32 2
36 13 2
13 33 2
2 34 2
34 45 2
45 34 2
2 45 2
1 2 1
4 2 1
2 4 1
5 6 1
6 3 1
3 7 1
2 9 1
9 10 1
10 9 1
9 11 1
11 9 1
9 7 1
11 12 1
12 13 1
13 12 1
12 9 1
9 2 1
14 7 1
14 15 1
15 5 1
2 5 1
3 16 1
11 16 1
2 17 1
17 11 1
13 18 1
18 19 1
19 7 1
7 11 1
13 20 1
21 22 1
22 2 1
2 20 1
20 22 1
22 21 1
20 23 1
2 24 1
24 2 1
10 25 1
25 26 1
26 25 1
27 25 1
2 28 1
28 2 1
29 10 1
23 11 1
29 11 1
23 30 1
2 31 1
31 2 1
29 23 1
11 23 1
23 32 1
32 33 1
33 34 1
33 35 1
35 36 1
36 34 1
32 36 1
32 35 1
35 33 1
33 13 1
13 35 1
35 2 1
13 37 1
37 2 1
2 38 1
38 2 1
2 39 1
39 27 1
2 40 1
40 41 1
41 2 1
2 42 1
42 13 1
2 43 1
43 13 1
2 44 1
44 13 1
34 2 1
45 33 1
45 13 1
2 46 1
46 2 1
13 47 1
47 13 1
30 10 1
13 48 1
48 49 1
