54 9 23
9 54 17
55 24 14
24 55 14
9 45 11
9 29 10
52 53 10
49 48 10
29 30 9
30 29 9
48 49 9
31 32 8
44 24 8
24 44 8
29 9 7
45 9 7
53 52 7
49 52 7
45 29 7
29 45 7
29 31 6
31 29 6
52 9 6
9 48 5
48 56 5
9 52 4
9 55 4
30 32 4
12 9 3
9 21 3
32 24 3
29 24 3
32 44 3
44 45 3
45 24 3
32 30 3
55 9 3
24 49 3
52 24 3
54 52 3
52 54 3
53 51 3
29 12 3
9 12 2
21 9 2
24 32 2
24 31 2
44 9 2
20 29 2
32 9 2
45 44 2
24 54 2
48 52 2
48 24 2
24 48 2
52 56 2
56 52 2
52 57 2
52 49 2
49 58 2
58 52 2
59 9 2
29 10 2
32 31 2
30 45 2
45 63 2
63 45 2
9 57 2
54 53 2
48 54 2
52 67 2
52 48 2
24 9 2
45 30 2
44 29 2
45 31 2
32 54 2
55 54 2
56 55 2
55 49 2
56 48 2
48 58 2
54 24 2
12 20 2
29 82 2
82 29 2
56 75 2
75 49 2
58 50 2
29 32 2
24 29 2
1 2 1
2 3 1
3 4 1
4 5 1
5 6 1
6 7 1
7 2 1
2 8 1
8 2 1
2 9 1
9 10 1
10 11 1
11 9 1
9 13 1
13 14 1
14 15 1
15 16 1
16 17 1
17 18 1
18 19 1
19 20 1
20 9 1
21 22 1
22 23 1
23 24 1
24 25 1
25 26 1
26 25 1
25 27 1
27 28 1
28 29 1
32 29 1
29 33 1
33 31 1
24 34 1
34 35 1
35 36 1
36 37 1
37 38 1
38 39 1
39 32 1
32 37 1
37 40 1
40 41 1
41 40 1
40 9 1
29 42 1
42 33 1
33 43 1
43 42 1
42 29 1
9 44 1
24 46 1
46 9 1
9 47 1
47 24 1
24 15 1
15 20 1
45 48 1
49 44 1
44 48 1
49 50 1
50 44 1
44 51 1
51 44 1
24 45 1
45 54 1
45 52 1
48 53 1
53 24 1
48 9 1
57 52 1
52 59 1
9 59 1
59 48 1
48 59 1
59 29 1
30 60 1
60 30 1
29 61 1
61 29 1
32 28 1
28 30 1
10 30 1
30 10 1
10 32 1
29 62 1
62 30 1
45 12 1
12 64 1
64 45 1
30 51 1
51 65 1
65 52 1
53 49 1
49 54 1
57 49 1
57 54 1
53 48 1
54 48 1
51 9 1
9 51 1
51 59 1
9 58 1
52 66 1
66 49 1
67 52 1
67 53 1
53 50 1
50 49 1
52 68 1
68 52 1
52 69 1
69 52 1
48 42 1
42 52 1
48 70 1
70 9 1
24 52 1
48 71 1
71 50 1
50 72 1
72 58 1
58 24 1
24 58 1
58 42 1
42 9 1
56 49 1
49 9 1
9 49 1
49 73 1
73 44 1
24 74 1
74 24 1
57 53 1
52 42 1
42 53 1
51 75 1
75 24 1
54 76 1
76 77 1
77 54 1
9 30 1
30 31 1
31 78 1
78 29 1
12 45 1
29 74 1
74 48 1
52 55 1
55 52 1
58 54 1
9 53 1
53 54 1
54 49 1
53 56 1
54 29 1
29 44 1
10 45 1
9 79 1
79 9 1
32 80 1
80 81 1
81 12 1
82 32 1
30 82 1
29 52 1
51 52 1
53 83 1
83 67 1
67 82 1
82 49 1
49 24 1
44 53 1
53 55 1
49 55 1
55 82 1
82 52 1
52 82 1
82 30 1
12 31 1
44 56 1
58 75 1
75 31 1
31 50 1
50 64 1
64 58 1
50 58 1
58 67 1
67 48 1
49 29 1
50 75 1
9 84 1
84 85 1
85 86 1
86 87 1
87 49 1
48 12 1
20 53 1
53 64 1
64 49 1
49 57 1
57 48 1
48 84 1
84 48 1
75 59 1
59 24 1
24 42 1
