22 6 79
6 22 74
10 6 35
6 10 34
10 22 26
22 10 25
35 22 15
9 6 13
22 35 12
6 9 11
10 34 11
34 10 10
22 42 6
14 22 6
22 91 6
91 22 6
7 5 5
6 14 5
42 22 5
58 22 5
22 58 5
5 6 4
5 7 4
22 36 4
70 22 4
22 14 4
22 97 4
97 22 4
117 118 4
6 7 3
7 9 3
36 22 3
45 6 3
6 47 3
47 22 3
65 58 3
118 22 3
120 22 3
22 118 3
10 9 2
6 15 2
15 6 2
9 5 2
5 10 2
10 7 2
19 6 2
24 10 2
19 22 2
7 22 2
31 32 2
10 35 2
41 42 2
22 45 2
46 6 2
55 10 2
6 57 2
57 6 2
58 10 2
59 58 2
58 65 2
58 66 2
66 58 2
14 65 2
71 70 2
22 64 2
34 75 2
34 84 2
84 34 2
22 90 2
90 22 2
118 117 2
119 22 2
22 120 2
1 2 1
2 3 1
3 4 1
4 5 1
5 8 1
8 6 1
6 11 1
11 12 1
12 5 1
9 10 1
9 13 1
13 9 1
14 7 1
9 11 1
11 9 1
6 5 1
5 11 1
11 5 1
14 10 1
6 16 1
16 5 1
7 17 1
17 16 1
16 7 1
7 18 1
18 19 1
6 20 1
20 21 1
21 6 1
22 23 1
23 10 1
6 24 1
22 25 1
25 22 1
6 26 1
26 6 1
6 27 1
27 24 1
24 6 1
22 24 1
10 28 1
28 19 1
22 29 1
29 6 1
6 28 1
28 22 1
22 19 1
22 7 1
22 30 1
30 22 1
6 30 1
30 31 1
32 31 1
32 13 1
13 22 1
6 33 1
33 10 1
36 30 1
30 37 1
37 10 1
6 38 1
38 6 1
6 39 1
39 40 1
40 41 1
42 41 1
42 43 1
43 44 1
44 6 1
22 46 1
22 48 1
48 10 1
10 46 1
22 49 1
49 6 1
10 45 1
6 19 1
6 37 1
37 22 1
10 48 1
48 6 1
47 6 1
10 37 1
37 45 1
10 47 1
45 22 1
6 42 1
42 10 1
42 35 1
22 50 1
50 34 1
34 51 1
51 34 1
34 52 1
52 6 1
10 53 1
53 54 1
54 55 1
22 56 1
56 6 1
6 58 1
58 6 1
6 59 1
59 60 1
60 58 1
10 58 1
58 59 1
10 59 1
58 61 1
61 62 1
62 10 1
6 63 1
63 64 1
64 58 1
65 66 1
66 67 1
67 65 1
65 14 1
58 14 1
65 68 1
68 65 1
58 69 1
69 70 1
70 64 1
64 65 1
65 6 1
22 71 1
70 65 1
65 71 1
64 22 1
10 70 1
22 70 1
70 14 1
14 68 1
68 70 1
14 72 1
72 73 1
73 70 1
64 10 1
22 74 1
74 22 1
22 2 1
2 34 1
34 22 1
22 34 1
75 76 1
76 77 1
77 78 1
78 79 1
79 80 1
80 6 1
6 81 1
81 22 1
6 82 1
82 34 1
34 83 1
83 82 1
82 6 1
6 51 1
51 10 1
75 22 1
22 85 1
85 86 1
86 55 1
6 34 1
34 87 1
87 10 1
22 88 1
88 89 1
89 88 1
88 22 1
22 92 1
92 22 1
22 93 1
93 94 1
94 95 1
95 96 1
96 22 1
22 98 1
98 91 1
91 99 1
99 6 1
22 100 1
100 6 1
22 101 1
101 22 1
22 102 1
102 103 1
103 104 1
104 22 1
22 105 1
105 106 1
106 22 1
6 107 1
107 108 1
108 109 1
109 110 1
110 109 1
109 108 1
108 111 1
111 22 1
6 110 1
110 22 1
6 112 1
112 113 1
113 22 1
22 114 1
114 115 1
115 22 1
6 116 1
116 117 1
118 6 1
22 117 1
22 119 1
119 120 1
118 119 1
6 62 1
62 119 1
22 121 1
121 119 1
119 6 1
22 122 1
122 123 1
123 124 1
124 22 1
6 56 1
56 125 1
125 22 1
22 126 1
126 127 1
127 22 1
22 128 1
128 129 1
129 22 1
22 130 1
130 131 1
131 19 1
