6 28 56
28 6 55
28 41 20
41 28 19
46 6 18
28 42 17
42 41 17
6 46 14
6 38 13
41 42 13
38 6 12
42 28 11
6 4 10
6 73 9
4 6 8
6 53 8
53 6 8
73 6 7
42 6 6
41 6 6
6 41 5
47 6 5
6 42 5
145 42 5
6 14 4
6 47 4
83 28 4
73 46 4
42 145 4
14 6 3
19 14 3
28 40 3
40 28 3
28 83 3
46 73 3
139 28 3
14 21 2
6 35 2
35 6 2
41 4 2
4 41 2
28 4 2
4 45 2
45 6 2
47 49 2
49 47 2
6 20 2
6 68 2
46 28 2
28 79 2
59 28 2
28 81 2
81 28 2
28 73 2
82 28 2
53 28 2
73 28 2
1 2 1
2 3 1
3 4 1
4 3 1
3 5 1
5 6 1
6 7 1
7 8 1
8 9 1
9 8 1
8 10 1
10 11 1
11 12 1
12 5 1
5 13 1
13 6 1
14 3 1
3 15 1
15 3 1
3 16 1
16 4 1
4 17 1
17 18 1
18 19 1
19 20 1
20 19 1
6 19 1
14 19 1
21 14 1
21 22 1
22 23 1
23 24 1
24 25 1
25 26 1
26 27 1
27 26 1
26 28 1
6 29 1
29 30 1
30 31 1
31 32 1
32 33 1
33 34 1
34 35 1
35 36 1
36 6 1
6 37 1
37 6 1
38 39 1
39 28 1
40 41 1
41 40 1
40 39 1
39 40 1
42 43 1
43 6 1
28 44 1
44 28 1
4 28 1
4 46 1
46 4 1
4 47 1
6 48 1
48 47 1
47 4 1
4 5 1
5 37 1
37 50 1
50 6 1
28 51 1
51 6 1
6 51 1
51 38 1
38 52 1
52 6 1
6 54 1
54 6 1
20 37 1
37 46 1
6 55 1
55 20 1
20 56 1
56 28 1
6 57 1
57 46 1
6 58 1
58 11 1
11 6 1
6 59 1
59 60 1
60 61 1
61 6 1
6 62 1
62 63 1
63 64 1
64 6 1
6 65 1
65 28 1
28 66 1
66 6 1
6 66 1
66 20 1
20 6 1
6 67 1
67 6 1
68 6 1
68 69 1
69 70 1
70 46 1
6 71 1
71 46 1
28 20 1
20 72 1
72 6 1
14 73 1
73 74 1
74 73 1
73 75 1
75 6 1
6 76 1
76 28 1
28 77 1
77 78 1
78 28 1
79 28 1
79 80 1
80 59 1
73 82 1
41 83 1
28 82 1
28 84 1
84 6 1
6 85 1
85 28 1
42 86 1
86 6 1
73 87 1
87 28 1
28 88 1
88 28 1
28 89 1
89 5 1
5 73 1
73 90 1
90 42 1
28 91 1
91 28 1
28 46 1
46 92 1
92 28 1
28 93 1
93 94 1
94 95 1
95 96 1
96 97 1
97 95 1
95 98 1
98 99 1
99 100 1
100 101 1
101 102 1
102 103 1
103 41 1
41 104 1
104 41 1
41 105 1
105 106 1
106 42 1
42 107 1
107 28 1
28 98 1
98 108 1
108 109 1
109 41 1
41 109 1
109 42 1
42 46 1
41 110 1
110 98 1
98 111 1
111 112 1
112 113 1
113 114 1
114 115 1
115 104 1
104 6 1
6 116 1
116 98 1
98 117 1
117 41 1
41 118 1
118 88 1
88 119 1
119 73 1
73 120 1
120 6 1
6 121 1
121 122 1
122 28 1
20 4 1
4 123 1
123 73 1
73 124 1
124 125 1
125 126 1
126 4 1
4 127 1
127 128 1
128 41 1
6 129 1
129 130 1
130 28 1
28 131 1
131 42 1
41 115 1
115 59 1
28 132 1
132 42 1
42 4 1
4 59 1
59 133 1
133 134 1
134 6 1
28 135 1
135 28 1
42 136 1
136 137 1
137 138 1
138 73 1
73 4 1
4 53 1
28 53 1
28 139 1
28 140 1
140 139 1
28 141 1
141 139 1
28 142 1
142 139 1
139 73 1
41 54 1
54 143 1
143 144 1
144 145 1
42 144 1
144 28 1
