7 31 55
31 7 53
45 44 18
31 45 18
49 7 18
31 44 17
44 31 17
7 49 14
44 45 13
45 31 13
7 41 12
41 7 12
7 5 9
7 79 9
5 7 8
7 57 7
57 7 7
79 7 7
44 7 6
50 7 5
7 50 4
88 31 4
79 49 4
7 45 4
45 7 4
154 31 4
160 45 4
7 15 3
15 7 3
21 15 3
31 43 3
43 31 3
7 44 3
5 44 3
31 88 3
49 79 3
45 160 3
7 21 2
15 23 2
7 38 2
38 7 2
44 5 2
31 5 2
48 7 2
50 52 2
52 50 2
7 59 2
7 74 2
49 31 2
31 83 2
65 31 2
31 86 2
86 31 2
31 79 2
57 31 2
1 2 1
2 3 1
3 4 1
4 5 1
5 4 1
4 6 1
6 7 1
7 8 1
8 9 1
9 10 1
10 9 1
9 11 1
11 12 1
12 13 1
13 6 1
6 14 1
14 7 1
15 4 1
4 16 1
16 4 1
4 17 1
17 5 1
5 18 1
18 5 1
5 19 1
19 20 1
20 21 1
21 22 1
22 21 1
23 15 1
23 24 1
24 25 1
25 26 1
26 27 1
27 28 1
28 29 1
29 30 1
30 29 1
29 31 1
7 32 1
32 33 1
33 34 1
34 35 1
35 36 1
36 37 1
37 38 1
38 39 1
39 7 1
7 40 1
40 7 1
7 42 1
42 31 1
43 44 1
44 43 1
43 42 1
42 43 1
45 46 1
46 7 1
31 47 1
47 31 1
5 48 1
5 49 1
49 5 1
7 48 1
5 50 1
7 51 1
51 50 1
50 53 1
53 5 1
5 6 1
6 40 1
40 54 1
54 7 1
31 55 1
55 7 1
7 55 1
55 41 1
41 56 1
56 7 1
7 58 1
58 7 1
59 40 1
40 49 1
7 60 1
60 59 1
59 61 1
61 31 1
7 62 1
62 49 1
49 63 1
63 49 1
7 64 1
64 12 1
12 7 1
7 65 1
65 66 1
66 67 1
67 7 1
7 68 1
68 69 1
69 70 1
70 7 1
7 71 1
71 31 1
31 72 1
72 7 1
7 72 1
72 59 1
59 7 1
7 73 1
73 7 1
74 7 1
74 75 1
75 76 1
76 49 1
7 77 1
77 49 1
31 59 1
59 78 1
78 7 1
15 79 1
79 80 1
80 7 1
7 81 1
81 31 1
31 82 1
82 31 1
83 31 1
83 84 1
84 65 1
31 85 1
85 44 1
79 87 1
87 45 1
44 88 1
31 89 1
89 87 1
87 31 1
31 90 1
90 7 1
7 91 1
91 31 1
45 92 1
92 7 1
79 93 1
93 94 1
94 31 1
31 95 1
95 96 1
96 31 1
31 97 1
97 6 1
6 79 1
79 98 1
98 45 1
31 99 1
99 31 1
31 49 1
49 100 1
100 31 1
31 101 1
101 102 1
102 103 1
103 104 1
104 105 1
105 106 1
106 104 1
104 107 1
107 108 1
108 109 1
109 110 1
110 111 1
111 112 1
112 113 1
113 44 1
44 114 1
114 44 1
44 115 1
115 116 1
116 117 1
117 45 1
45 118 1
118 31 1
31 107 1
107 119 1
119 120 1
120 44 1
44 120 1
120 45 1
45 49 1
44 121 1
121 107 1
107 122 1
122 123 1
123 124 1
124 125 1
125 126 1
126 114 1
114 7 1
7 127 1
127 107 1
107 44 1
44 128 1
128 44 1
44 129 1
129 130 1
130 131 1
131 132 1
132 133 1
133 79 1
79 134 1
134 7 1
7 135 1
135 136 1
136 31 1
59 5 1
5 137 1
137 79 1
79 138 1
138 139 1
139 140 1
140 5 1
5 141 1
141 142 1
142 44 1
7 143 1
143 7 1
31 144 1
144 31 1
7 145 1
145 146 1
146 147 1
147 45 1
44 126 1
126 65 1
31 148 1
148 45 1
45 5 1
5 65 1
65 149 1
149 7 1
31 150 1
150 31 1
45 151 1
151 152 1
152 153 1
153 79 1
79 5 1
5 57 1
31 57 1
79 31 1
31 154 1
31 155 1
155 154 1
31 156 1
156 154 1
31 157 1
157 154 1
154 79 1
79 154 1
44 58 1
58 158 1
158 159 1
159 160 1
45 161 1
161 162 1
162 159 1
159 31 1
