3 20 56
20 3 56
3 7 46
7 3 45
2 3 33
3 2 32
34 20 31
20 34 31
7 5 14
5 3 12
20 5 12
3 5 11
5 7 11
13 3 10
5 20 10
3 13 9
7 20 9
20 7 9
20 40 8
40 20 8
3 10 7
7 38 7
38 7 6
40 41 6
10 3 5
16 3 5
41 40 5
3 46 5
10 5 4
5 16 4
3 16 4
5 40 4
40 5 4
3 44 4
44 3 4
46 3 4
8 3 3
5 8 3
3 12 3
5 13 3
5 10 3
26 20 3
31 20 3
5 38 3
38 5 3
3 45 3
45 3 3
5 6 2
6 7 2
3 8 2
3 9 2
3 11 2
11 3 2
12 3 2
13 5 2
3 14 2
14 3 2
16 5 2
18 3 2
3 18 2
5 19 2
20 26 2
20 31 2
38 3 2
3 38 2
3 40 2
41 20 2
20 41 2
47 3 2
1 2 1
3 4 1
4 2 1
2 5 1
7 6 1
6 5 1
9 7 1
8 5 1
12 5 1
3 15 1
15 3 1
16 17 1
17 5 1
10 18 1
18 5 1
19 3 1
20 21 1
21 5 1
8 20 1
5 22 1
22 23 1
23 5 1
5 24 1
24 5 1
5 25 1
25 5 1
5 26 1
7 19 1
19 27 1
27 5 1
5 28 1
28 29 1
29 30 1
30 5 1
3 31 1
20 32 1
32 5 1
5 33 1
33 5 1
5 34 1
34 5 1
5 35 1
35 5 1
5 36 1
36 5 1
5 37 1
37 7 1
19 7 1
5 23 1
23 3 1
38 20 1
20 39 1
39 20 1
41 3 1
40 3 1
5 42 1
42 5 1
9 3 1
5 43 1
43 3 1
46 47 1
3 47 1
