15 2 76
2 15 75
4 2 43
2 4 42
15 25 37
25 15 35
2 50 20
50 2 18
1 15 16
15 1 15
1 2 11
2 1 11
15 4 11
4 1 10
14 2 10
40 4 10
4 15 10
2 9 9
1 4 9
2 14 9
4 40 9
2 6 8
43 15 8
6 2 7
9 2 7
43 44 7
15 43 7
3 4 6
2 52 6
52 2 6
9 15 5
20 15 5
2 43 5
44 43 5
2 47 5
4 3 4
15 18 4
18 1 4
15 32 4
32 15 4
36 2 4
2 20 4
43 1 4
47 2 4
6 1 3
7 2 3
1 13 3
17 2 3
2 17 3
17 15 3
1 18 3
15 21 3
21 15 3
18 2 3
15 9 3
29 30 3
30 29 3
15 40 3
40 15 3
1 43 3
48 2 3
2 49 3
49 2 3
1 3 2
2 7 2
2 8 2
8 2 2
9 1 2
1 6 2
2 11 2
11 2 2
13 1 2
13 2 2
15 17 2
18 15 2
19 9 2
15 20 2
23 2 2
2 36 2
43 2 2
44 2 2
44 15 2
15 44 2
2 48 2
1 5 1
5 2 1
2 5 1
5 6 1
1 7 1
9 10 1
10 2 1
2 10 1
10 1 1
1 9 1
2 12 1
12 1 1
2 13 1
6 14 1
4 6 1
6 4 1
1 16 1
16 17 1
1 19 1
19 15 1
15 19 1
9 19 1
4 9 1
2 22 1
22 2 1
4 23 1
2 23 1
2 24 1
24 1 1
1 25 1
25 26 1
26 1 1
15 27 1
27 15 1
15 28 1
28 15 1
15 29 1
29 31 1
31 15 1
1 10 1
10 4 1
15 33 1
33 1 1
25 1 1
1 34 1
34 35 1
35 34 1
34 4 1
1 35 1
35 36 1
4 37 1
37 36 1
1 38 1
38 1 1
20 2 1
25 39 1
39 15 1
40 2 1
2 40 1
15 41 1
41 40 1
15 42 1
42 2 1
4 43 1
1 45 1
45 1 1
2 46 1
46 18 1
2 18 1
47 48 1
50 51 1
51 2 1
