10 14 57
14 10 54
9 10 36
10 9 36
10 29 31
29 10 31
21 10 29
10 21 23
9 21 15
21 9 14
21 35 9
35 21 8
9 14 6
14 21 5
21 22 4
22 21 4
10 30 4
30 10 4
39 21 4
3 4 3
26 21 3
21 39 3
14 9 3
17 18 2
18 19 2
21 26 2
10 27 2
27 28 2
21 14 2
14 39 2
10 39 2
1 2 1
2 3 1
4 5 1
5 4 1
4 6 1
6 4 1
4 7 1
7 4 1
4 8 1
8 9 1
10 11 1
11 12 1
12 13 1
13 12 1
12 10 1
14 15 1
15 16 1
16 14 1
14 17 1
19 20 1
20 9 1
10 23 1
23 10 1
10 24 1
24 9 1
9 25 1
25 26 1
27 10 1
28 27 1
28 10 1
10 17 1
19 17 1
17 9 1
10 8 1
8 10 1
10 31 1
31 32 1
32 31 1
31 9 1
9 33 1
33 9 1
10 34 1
34 9 1
10 36 1
36 10 1
10 37 1
37 14 1
14 38 1
38 10 1
9 39 1
39 14 1
14 40 1
40 39 1
39 40 1
40 9 1
35 10 1
14 29 1
29 21 1
21 41 1
41 42 1
42 21 1
39 9 1
9 43 1
43 9 1
9 44 1
44 14 1
9 45 1
45 46 1
46 47 1
47 21 1
21 48 1
48 10 1
10 49 1
49 3 1
4 3 1
4 50 1
50 4 1
4 51 1
51 10 1
39 52 1
52 53 1
53 39 1
39 10 1
39 54 1
54 55 1
55 56 1
56 57 1
57 58 1
58 59 1
59 60 1
