7 3 92
3 7 87
7 32 53
32 7 45
4 3 13
29 3 9
3 29 9
3 33 9
3 4 7
25 7 7
33 3 7
3 25 6
7 25 6
29 7 6
7 27 5
32 3 4
7 29 4
25 29 4
25 3 3
27 7 3
3 32 3
33 7 3
7 4 3
32 4 3
7 33 3
3 74 3
9 7 2
3 10 2
25 27 2
44 7 2
27 4 2
32 39 2
39 7 2
4 32 2
74 3 2
29 27 2
29 25 2
1 2 1
2 3 1
3 5 1
5 4 1
4 6 1
6 7 1
7 5 1
5 7 1
7 8 1
8 3 1
3 9 1
7 9 1
10 3 1
3 11 1
11 3 1
3 12 1
12 13 1
13 7 1
3 14 1
14 3 1
7 15 1
15 16 1
16 3 1
3 17 1
17 7 1
7 18 1
18 7 1
3 19 1
19 20 1
20 7 1
3 21 1
21 3 1
3 22 1
22 3 1
3 23 1
23 7 1
3 24 1
24 3 1
3 26 1
26 25 1
27 28 1
28 29 1
29 30 1
30 3 1
3 30 1
30 31 1
31 30 1
30 7 1
7 34 1
34 35 1
35 7 1
29 36 1
36 37 1
37 33 1
33 38 1
38 33 1
33 39 1
39 29 1
7 40 1
40 4 1
7 41 1
41 3 1
3 42 1
42 7 1
25 4 1
7 43 1
43 7 1
3 44 1
7 44 1
32 21 1
21 7 1
32 45 1
45 46 1
46 32 1
7 47 1
47 27 1
27 48 1
48 49 1
49 25 1
25 32 1
4 50 1
50 7 1
7 51 1
51 7 1
32 52 1
52 7 1
3 53 1
53 54 1
54 7 1
32 55 1
55 32 1
32 56 1
56 7 1
7 57 1
57 7 1
7 24 1
24 4 1
4 58 1
58 47 1
47 59 1
59 60 1
60 47 1
47 61 1
61 47 1
47 62 1
62 63 1
63 7 1
3 64 1
64 3 1
29 21 1
21 4 1
39 53 1
53 7 1
32 25 1
25 65 1
65 25 1
4 66 1
66 7 1
4 67 1
67 7 1
7 68 1
68 7 1
7 46 1
46 29 1
27 3 1
10 39 1
39 4 1
7 69 1
69 70 1
70 71 1
71 7 1
7 72 1
72 4 1
4 70 1
70 7 1
3 70 1
70 3 1
33 73 1
73 7 1
74 29 1
29 54 1
54 29 1
33 20 1
20 4 1
4 7 1
32 75 1
75 25 1
27 29 1
25 41 1
41 25 1
4 25 1
25 76 1
76 15 1
15 39 1
