6 7 21
7 6 19
12 6 15
1 7 13
6 12 11
7 1 11
37 38 7
38 7 7
7 12 6
37 18 6
1 6 6
12 1 5
6 1 5
18 37 5
23 1 5
1 23 5
6 38 5
1 2 4
6 23 4
24 7 4
7 24 4
38 37 4
7 38 4
2 1 3
6 18 3
18 12 3
12 7 3
23 12 3
12 23 3
37 36 3
7 37 3
5 6 2
6 14 2
14 6 2
14 7 2
7 18 2
12 18 2
18 1 2
1 12 2
7 46 2
46 12 2
22 24 2
18 24 2
23 7 2
37 7 2
38 6 2
24 6 2
37 6 2
2 3 1
3 1 1
1 4 1
4 5 1
6 5 1
6 8 1
8 6 1
7 9 1
9 10 1
10 7 1
6 11 1
11 6 1
12 4 1
4 12 1
12 13 1
13 6 1
7 14 1
14 15 1
15 1 1
1 15 1
15 14 1
7 16 1
16 17 1
17 6 1
12 19 1
19 20 1
20 21 1
21 6 1
6 22 1
22 6 1
23 24 1
24 3 1
3 15 1
15 3 1
3 14 1
6 25 1
25 26 1
26 27 1
27 12 1
12 28 1
28 12 1
12 29 1
29 1 1
1 3 1
3 6 1
18 30 1
30 31 1
31 23 1
23 32 1
32 33 1
33 24 1
24 14 1
14 34 1
34 14 1
14 35 1
35 36 1
36 14 1
14 37 1
38 39 1
39 40 1
40 38 1
38 41 1
41 37 1
18 6 1
1 42 1
42 12 1
18 43 1
43 1 1
6 44 1
44 1 1
7 45 1
45 7 1
12 47 1
47 12 1
7 48 1
48 6 1
6 49 1
49 7 1
7 50 1
50 20 1
20 51 1
51 20 1
20 52 1
52 6 1
6 53 1
53 6 1
18 54 1
54 18 1
1 22 1
7 55 1
55 56 1
56 37 1
18 39 1
39 18 1
37 57 1
57 12 1
12 58 1
58 59 1
59 31 1
31 60 1
60 7 1
7 61 1
61 62 1
62 6 1
23 63 1
63 22 1
22 56 1
56 64 1
64 65 1
65 66 1
66 18 1
18 67 1
67 1 1
1 68 1
68 1 1
7 69 1
69 70 1
70 71 1
71 72 1
72 73 1
73 37 1
37 74 1
74 75 1
75 76 1
76 77 1
77 78 1
78 79 1
79 80 1
80 81 1
81 82 1
82 18 1
18 14 1
14 83 1
83 14 1
14 84 1
84 85 1
85 15 1
15 30 1
30 18 1
24 39 1
39 37 1
36 86 1
86 18 1
24 87 1
87 6 1
1 88 1
88 89 1
89 90 1
90 91 1
91 15 1
15 36 1
36 30 1
30 15 1
15 92 1
92 37 1
36 12 1
23 18 1
18 7 1
6 93 1
93 6 1
6 94 1
94 95 1
95 46 1
46 36 1
36 19 1
19 96 1
96 6 1
6 97 1
97 6 1
6 98 1
98 7 1
38 99 1
99 100 1
100 99 1
99 98 1
98 99 1
99 101 1
101 37 1
37 23 1
7 23 1
23 6 1
1 37 1
6 24 1
38 22 1
6 56 1
56 24 1
24 38 1
38 64 1
64 6 1
6 102 1
102 38 1
38 23 1
23 38 1
38 103 1
103 37 1
38 104 1
104 37 1
6 37 1
36 1 1
6 105 1
105 6 1
1 106 1
106 107 1
107 6 1
6 108 1
108 109 1
109 38 1
1 110 1
110 7 1
24 12 1
38 18 1
18 38 1
