7 25 81
25 7 78
6 7 42
7 6 41
29 7 34
7 29 31
7 46 16
7 11 14
3 6 14
25 29 14
12 7 13
6 3 13
46 7 13
7 12 12
33 7 12
11 7 11
29 25 11
25 33 11
54 55 9
55 54 9
7 33 8
7 40 8
45 7 8
46 47 8
7 13 7
3 28 7
28 3 7
40 7 7
33 43 7
13 7 6
7 45 6
47 46 6
33 25 6
2 3 5
3 2 5
43 7 5
7 42 5
42 33 5
24 60 5
11 25 4
37 38 4
38 37 4
43 33 4
20 45 4
60 24 4
7 20 3
7 5 3
5 7 3
25 6 3
20 34 3
25 40 3
42 25 3
7 43 3
20 40 3
40 20 3
25 45 3
45 3 3
3 25 3
6 45 3
2 4 2
20 7 2
6 23 2
24 7 2
31 29 2
33 29 2
34 20 2
20 33 2
33 20 2
40 33 2
33 40 2
40 25 2
40 42 2
42 7 2
25 43 2
43 25 2
29 42 2
45 20 2
45 6 2
25 42 2
43 20 2
45 25 2
6 25 2
45 24 2
47 7 2
1 2 1
4 5 1
5 2 1
4 6 1
7 8 1
8 9 1
9 6 1
6 10 1
10 7 1
13 14 1
14 7 1
7 15 1
15 12 1
7 16 1
16 17 1
17 18 1
18 19 1
19 7 1
7 21 1
21 22 1
22 7 1
23 6 1
23 7 1
7 24 1
25 11 1
20 24 1
7 26 1
26 7 1
25 27 1
27 3 1
3 7 1
29 30 1
30 31 1
29 31 1
31 32 1
32 31 1
29 33 1
29 20 1
33 35 1
35 33 1
34 33 1
33 34 1
34 7 1
7 36 1
36 37 1
37 29 1
29 39 1
39 7 1
7 39 1
39 25 1
7 41 1
41 7 1
29 40 1
43 29 1
42 29 1
29 44 1
44 20 1
20 27 1
27 20 1
45 29 1
40 43 1
47 29 1
7 48 1
48 29 1
7 49 1
49 25 1
33 42 1
42 50 1
50 42 1
42 51 1
51 25 1
25 52 1
52 53 1
53 50 1
50 51 1
51 7 1
7 50 1
50 53 1
53 52 1
52 25 1
25 50 1
50 7 1
7 54 1
54 56 1
56 54 1
54 7 1
7 3 1
3 29 1
29 3 1
45 57 1
57 42 1
20 58 1
58 45 1
45 59 1
59 3 1
6 29 1
42 43 1
43 24 1
24 61 1
61 60 1
60 45 1
29 45 1
3 45 1
24 43 1
33 45 1
24 62 1
62 63 1
63 7 1
46 64 1
64 46 1
7 47 1
46 45 1
45 43 1
43 65 1
65 2 1
2 33 1
25 66 1
66 24 1
60 67 1
67 68 1
68 45 1
29 6 1
7 69 1
69 63 1
63 70 1
70 25 1
