10 12 11
12 10 10
20 18 10
18 20 9
11 12 8
12 6 8
6 13 8
10 6 7
6 10 7
12 14 7
13 6 7
12 11 6
14 12 6
12 13 5
6 18 5
6 12 5
18 6 5
13 12 4
13 11 4
14 10 4
12 28 4
28 29 4
11 13 3
6 11 3
20 6 3
29 12 3
11 6 3
18 32 3
10 14 3
3 24 2
24 7 2
27 6 2
28 12 2
32 20 2
32 34 2
10 27 2
13 18 2
18 14 2
39 41 2
1 2 1
2 3 1
3 4 1
4 5 1
5 6 1
6 2 1
2 7 1
7 6 1
6 8 1
8 9 1
9 10 1
10 11 1
13 14 1
12 15 1
15 12 1
6 16 1
16 12 1
12 17 1
17 12 1
18 12 1
12 19 1
19 20 1
18 21 1
21 20 1
20 12 1
12 22 1
22 12 1
12 23 1
23 18 1
14 3 1
7 5 1
5 3 1
7 12 1
12 3 1
3 7 1
7 10 1
6 25 1
25 26 1
26 25 1
25 27 1
6 27 1
29 28 1
12 30 1
30 12 1
6 28 1
6 30 1
30 14 1
14 6 1
6 14 1
14 31 1
31 32 1
20 32 1
32 6 1
6 32 1
32 33 1
33 6 1
6 20 1
32 18 1
34 35 1
35 34 1
34 32 1
34 20 1
27 10 1
27 13 1
6 36 1
36 6 1
6 37 1
37 18 1
14 13 1
18 38 1
38 18 1
6 39 1
39 40 1
40 11 1
11 39 1
39 18 1
18 39 1
41 39 1
41 20 1
20 41 1
41 42 1
42 18 1
18 41 1
41 14 1
14 18 1
14 43 1
43 10 1
