4 7 32
7 4 27
27 7 15
18 31 14
31 18 13
7 27 12
36 18 10
27 4 9
5 27 9
18 36 9
18 16 8
16 18 8
4 27 8
27 5 7
29 18 6
27 34 6
4 5 5
5 4 5
7 5 5
18 29 5
34 27 5
7 6 4
7 10 4
7 24 4
29 31 4
31 29 4
6 7 3
10 7 3
11 9 3
21 18 3
4 28 3
34 35 3
35 34 3
4 6 2
5 7 2
5 9 2
7 11 2
7 2 2
18 21 2
24 7 2
24 4 2
4 25 2
25 7 2
9 26 2
18 30 2
30 20 2
20 30 2
18 4 2
28 7 2
1 2 1
2 3 1
3 4 1
6 5 1
5 6 1
6 4 1
6 8 1
8 5 1
9 4 1
10 4 1
9 12 1
12 4 1
10 11 1
11 1 1
1 10 1
2 7 1
2 9 1
9 13 1
13 14 1
14 15 1
15 16 1
16 17 1
17 18 1
18 19 1
19 20 1
20 21 1
21 22 1
22 21 1
18 22 1
22 18 1
18 23 1
23 7 1
7 25 1
25 9 1
26 9 1
26 7 1
28 29 1
30 18 1
30 29 1
29 27 1
27 18 1
31 32 1
32 33 1
33 27 1
9 8 1
8 27 1
9 11 1
9 27 1
34 4 1
7 36 1
6 27 1
27 37 1
37 27 1
27 6 1
6 25 1
25 4 1
7 28 1
28 25 1
25 18 1
