28 11 13
9 11 12
11 9 11
3 23 11
11 28 11
19 1 10
23 3 10
3 1 9
23 19 9
1 3 8
1 19 8
1 23 8
1 11 7
11 1 7
23 1 7
13 7 6
19 23 6
15 6 5
6 15 5
15 1 5
7 13 5
9 13 4
13 9 4
1 15 4
1 17 4
22 1 4
6 1 4
1 6 4
11 29 3
19 11 3
3 4 2
4 11 2
7 11 2
6 16 2
16 6 2
17 1 2
17 6 2
17 19 2
19 6 2
20 1 2
19 3 2
6 3 2
1 24 2
24 6 2
6 22 2
1 22 2
1 21 2
21 6 2
1 20 2
13 28 2
29 11 2
1 28 2
28 19 2
6 19 2
11 19 2
1 2 1
2 3 1
4 5 1
5 3 1
4 2 1
2 6 1
6 7 1
7 6 1
6 8 1
8 9 1
9 6 1
6 10 1
10 4 1
4 9 1
9 4 1
11 12 1
12 9 1
11 14 1
14 9 1
11 4 1
9 1 1
11 17 1
17 3 1
3 17 1
17 15 1
6 18 1
18 1 1
19 17 1
15 19 1
19 15 1
15 17 1
15 20 1
6 21 1
21 22 1
22 23 1
3 6 1
22 3 1
3 22 1
3 25 1
25 26 1
26 1 1
1 27 1
27 1 1
23 22 1
22 6 1
6 11 1
23 15 1
6 20 1
20 23 1
23 13 1
29 13 1
13 29 1
29 19 1
19 9 1
11 13 1
11 7 1
9 30 1
30 23 1
19 29 1
29 20 1
20 28 1
20 6 1
11 23 1
28 1 1
1 31 1
31 28 1
28 13 1
11 15 1
6 32 1
