1 3 428
3 1 426
1 2 30
2 1 30
1 6 22
6 1 21
8 6 17
6 8 15
6 3 13
3 8 9
8 3 9
1 21 9
3 6 8
10 1 8
13 3 8
21 1 8
3 12 7
3 13 7
6 7 6
7 1 6
1 10 6
10 12 6
12 1 6
12 6 5
4 3 4
1 7 4
1 13 4
13 1 4
12 10 4
13 6 4
3 4 3
7 6 3
10 6 3
6 10 3
7 13 3
1 12 3
1 8 3
6 13 3
12 8 3
8 12 3
21 3 3
3 9 2
7 10 2
13 7 2
3 7 2
8 10 2
3 10 2
12 3 2
8 13 2
3 21 2
1 4 1
3 5 1
5 1 1
9 8 1
9 3 1
6 11 1
11 6 1
1 14 1
14 7 1
7 3 1
1 15 1
15 10 1
10 3 1
6 12 1
12 7 1
13 8 1
8 16 1
16 8 1
10 8 1
10 7 1
7 12 1
7 8 1
8 9 1
9 1 1
3 17 1
17 3 1
3 18 1
18 1 1
3 19 1
19 3 1
1 18 1
18 3 1
3 20 1
20 1 1
1 20 1
20 3 1
