5 6 30
6 5 26
7 10 17
10 7 13
4 5 10
4 2 9
5 4 9
8 7 9
7 8 8
2 4 7
10 15 7
12 13 6
13 12 6
15 10 6
10 25 6
7 25 6
25 7 6
15 22 6
6 4 5
22 23 5
25 10 5
22 15 5
15 9 5
4 6 4
12 15 4
23 22 4
10 26 4
25 30 4
30 25 4
9 18 4
46 15 4
9 10 3
10 8 3
10 9 3
10 12 3
5 2 3
2 5 3
10 29 3
12 8 3
5 51 3
51 52 3
52 51 3
51 5 3
1 2 2
11 10 2
18 8 2
26 10 2
26 4 2
4 10 2
30 29 2
15 12 2
15 13 2
10 30 2
30 10 2
6 10 2
18 34 2
34 9 2
13 8 2
8 13 2
13 34 2
34 13 2
13 15 2
9 15 2
45 12 2
18 9 2
9 12 2
8 12 2
12 46 2
15 46 2
29 10 2
6 50 2
10 5 2
29 12 2
9 5 2
5 7 2
15 5 2
5 15 2
2 1 1
2 3 1
3 4 1
4 7 1
8 9 1
9 7 1
7 9 1
8 11 1
10 11 1
12 14 1
14 15 1
10 2 1
2 16 1
16 4 1
2 17 1
17 4 1
6 18 1
8 18 1
8 10 1
7 19 1
19 20 1
20 21 1
21 22 1
23 24 1
24 23 1
23 10 1
26 7 1
7 26 1
4 27 1
27 5 1
6 28 1
28 4 1
29 30 1
29 31 1
31 10 1
10 32 1
32 10 1
13 33 1
33 34 1
34 35 1
35 30 1
30 36 1
36 30 1
29 37 1
37 30 1
30 37 1
37 10 1
10 4 1
4 38 1
38 29 1
29 38 1
38 32 1
32 39 1
39 7 1
25 5 1
25 40 1
40 12 1
12 41 1
41 25 1
25 12 1
12 42 1
42 18 1
9 13 1
13 26 1
26 24 1
24 43 1
43 12 1
22 13 1
15 44 1
44 15 1
9 45 1
12 45 1
12 9 1
18 15 1
8 34 1
34 12 1
15 47 1
47 37 1
37 25 1
25 37 1
37 29 1
29 48 1
48 25 1
10 49 1
49 6 1
6 2 1
2 21 1
21 6 1
50 6 1
2 6 1
50 10 1
5 53 1
53 51 1
51 25 1
10 13 1
13 29 1
12 54 1
54 12 1
12 29 1
12 7 1
25 55 1
55 34 1
34 7 1
12 56 1
56 13 1
13 56 1
56 31 1
31 9 1
9 38 1
38 13 1
13 9 1
46 9 1
9 46 1
15 7 1
7 52 1
52 5 1
5 10 1
15 34 1
34 15 1
15 18 1
18 10 1
7 28 1
28 15 1
7 5 1
6 57 1
57 6 1
15 58 1
58 6 1
6 58 1
58 59 1
59 6 1
6 59 1
59 60 1
60 22 1
22 59 1
59 10 1
5 58 1
58 5 1
