6 7 40
7 6 34
5 6 31
6 5 29
6 16 27
7 12 27
16 6 26
12 7 25
5 14 23
14 5 22
5 7 20
6 15 18
7 2 17
2 7 17
7 5 16
15 16 16
15 6 15
6 10 12
16 15 12
10 6 11
12 2 9
10 5 8
21 12 7
6 14 7
5 10 6
7 10 6
12 21 6
16 7 6
7 16 6
10 7 5
2 12 5
7 14 5
14 7 5
14 6 5
2 6 3
14 16 3
6 12 2
12 5 2
2 21 2
2 24 2
24 12 2
7 24 2
2 26 2
24 2 2
14 30 2
12 6 2
7 15 2
12 16 2
16 12 2
16 45 2
16 5 2
1 2 1
2 1 1
1 3 1
3 4 1
4 5 1
7 8 1
8 5 1
5 8 1
8 6 1
7 9 1
9 5 1
7 11 1
11 6 1
5 13 1
13 5 1
15 12 1
6 17 1
17 6 1
7 18 1
18 19 1
19 20 1
20 5 1
5 20 1
20 7 1
2 22 1
22 7 1
2 23 1
23 2 1
2 5 1
24 7 1
7 25 1
25 7 1
24 25 1
25 2 1
26 2 1
7 27 1
27 6 1
14 28 1
28 7 1
21 2 1
26 24 1
7 29 1
29 2 1
30 5 1
30 14 1
5 31 1
31 6 1
16 32 1
32 6 1
7 33 1
33 34 1
34 35 1
35 7 1
5 36 1
36 6 1
5 16 1
16 10 1
16 14 1
2 37 1
37 38 1
38 2 1
7 37 1
37 2 1
15 7 1
12 15 1
16 39 1
39 40 1
40 6 1
16 40 1
40 37 1
37 6 1
16 2 1
2 40 1
40 41 1
41 42 1
42 6 1
10 43 1
43 12 1
7 44 1
44 6 1
6 44 1
44 25 1
25 24 1
45 7 1
45 26 1
26 15 1
15 21 1
21 16 1
16 21 1
6 2 1
2 16 1
7 46 1
46 47 1
47 14 1
21 7 1
7 48 1
48 10 1
