4 13 95
13 4 93
19 4 76
4 19 73
5 4 42
4 5 40
15 4 33
4 15 31
4 9 29
10 4 28
4 10 24
9 4 23
6 4 18
4 12 18
12 4 18
4 6 17
13 15 13
15 13 12
4 20 10
20 4 10
4 17 9
17 4 9
4 30 8
4 16 7
16 4 7
30 4 7
9 10 6
10 15 5
6 7 4
7 6 4
15 10 4
31 4 4
15 19 4
7 4 3
4 7 3
4 8 3
13 19 3
4 31 3
19 15 3
8 4 2
4 25 2
25 4 2
19 31 2
1 2 1
2 3 1
3 4 1
5 6 1
8 9 1
4 11 1
11 5 1
4 14 1
14 5 1
10 13 1
13 10 1
10 9 1
9 15 1
9 13 1
17 16 1
16 17 1
4 18 1
18 19 1
4 21 1
21 4 1
4 22 1
22 4 1
19 5 1
4 23 1
23 4 1
4 24 1
24 25 1
25 26 1
26 4 1
4 27 1
27 4 1
4 28 1
28 4 1
4 29 1
29 4 1
30 13 1
31 19 1
