6 29 19
8 9 18
14 28 18
28 14 18
9 8 17
29 6 15
8 47 12
47 8 11
27 14 9
34 28 9
14 27 8
6 61 8
6 8 7
6 13 7
13 6 7
28 34 7
61 6 7
28 53 6
6 54 6
54 6 6
28 60 6
14 62 6
8 6 6
17 8 5
6 24 5
29 14 5
19 9 5
40 41 5
53 28 5
55 19 5
60 28 5
62 14 5
8 17 4
24 6 4
28 6 4
9 19 4
42 43 4
50 42 4
42 52 4
52 42 4
19 55 4
6 7 3
7 6 3
12 27 3
43 42 3
45 14 3
42 50 3
19 56 3
8 19 3
19 8 3
10 6 2
6 10 2
12 6 2
12 14 2
14 12 2
19 20 2
21 22 2
21 6 2
14 21 2
6 23 2
23 6 2
27 12 2
35 28 2
41 42 2
42 40 2
41 40 2
14 45 2
14 8 2
8 46 2
46 8 2
16 6 2
6 27 2
56 19 2
14 57 2
59 28 2
63 8 2
1 2 1
2 3 1
3 4 1
4 5 1
5 6 1
8 10 1
10 11 1
11 12 1
6 12 1
6 15 1
15 14 1
14 16 1
16 17 1
9 18 1
18 19 1
20 21 1
22 21 1
6 21 1
21 14 1
23 14 1
22 23 1
24 14 1
14 24 1
24 12 1
12 25 1
25 26 1
26 12 1
14 13 1
13 30 1
30 31 1
31 32 1
32 19 1
19 33 1
33 19 1
9 34 1
34 35 1
28 35 1
14 34 1
14 6 1
14 29 1
6 28 1
29 36 1
36 37 1
37 38 1
38 39 1
39 40 1
40 43 1
43 40 1
41 43 1
43 28 1
14 44 1
44 45 1
47 16 1
6 16 1
27 6 1
27 48 1
48 6 1
6 49 1
49 42 1
43 50 1
42 51 1
51 42 1
42 34 1
53 11 1
11 6 1
6 19 1
20 55 1
56 29 1
57 14 1
57 28 1
28 58 1
58 59 1
28 59 1
60 6 1
61 14 1
8 14 1
62 63 1
8 63 1
