9 4 28
4 9 27
4 7 26
7 4 26
13 12 26
4 5 25
12 13 25
5 4 21
8 4 15
13 16 13
20 13 13
4 8 12
16 13 12
12 21 12
21 12 12
13 14 11
13 20 11
16 12 10
14 13 10
9 8 9
21 13 9
8 7 8
7 9 8
12 16 8
12 20 8
11 4 7
5 9 6
9 11 6
9 7 6
12 14 6
20 12 6
13 21 6
7 5 5
7 11 5
11 8 5
4 11 5
14 12 5
13 23 5
11 9 5
36 40 5
40 36 5
40 32 5
32 40 5
12 5 4
27 28 4
28 27 4
37 38 4
13 28 4
5 6 3
9 5 3
8 9 3
17 13 3
13 17 3
23 13 3
23 20 3
21 31 3
38 37 3
28 13 3
16 21 3
12 28 3
28 12 3
5 11 3
5 7 2
7 6 2
11 5 2
8 11 2
11 7 2
13 5 2
16 18 2
18 16 2
13 22 2
20 23 2
5 16 2
31 32 2
32 33 2
33 21 2
21 5 2
5 13 2
17 12 2
41 7 2
20 21 2
1 2 1
2 3 1
3 4 1
6 7 1
6 4 1
6 8 1
6 9 1
4 10 1
10 4 1
5 8 1
7 8 1
4 12 1
5 12 1
14 15 1
15 12 1
5 17 1
14 19 1
19 13 1
5 14 1
22 13 1
22 14 1
23 5 1
5 24 1
24 25 1
25 18 1
18 13 1
21 9 1
4 21 1
21 7 1
12 26 1
26 13 1
20 7 1
6 27 1
27 13 1
5 21 1
21 29 1
29 21 1
21 30 1
30 31 1
31 21 1
31 34 1
34 21 1
21 35 1
35 36 1
36 21 1
12 17 1
12 6 1
6 37 1
38 12 1
13 39 1
39 28 1
21 16 1
16 20 1
20 16 1
28 21 1
28 20 1
21 14 1
4 36 1
40 33 1
33 40 1
40 12 1
5 41 1
7 41 1
7 42 1
42 21 1
14 20 1
14 5 1
4 16 1
13 9 1
8 5 1
14 40 1
36 30 1
30 43 1
43 44 1
44 45 1
45 1 1
1 46 1
46 47 1
47 48 1
48 49 1
49 50 1
50 51 1
51 52 1
52 53 1
53 54 1
