6 14 105
14 6 105
28 6 48
6 28 47
9 6 29
6 9 27
6 8 16
8 6 14
34 6 13
6 37 11
6 34 10
37 6 10
25 14 9
18 6 7
14 25 7
6 18 6
6 25 5
14 34 5
6 38 5
38 6 5
42 6 5
11 6 4
6 29 4
29 6 4
8 9 4
6 42 4
6 11 3
9 8 3
6 20 3
21 6 3
22 6 3
14 23 3
29 28 3
28 29 3
34 14 3
25 34 3
6 39 3
6 10 2
10 6 2
6 12 2
20 6 2
6 21 2
6 22 2
23 14 2
14 24 2
30 14 2
34 30 2
39 6 2
6 41 2
41 6 2
28 45 2
45 28 2
18 49 2
49 18 2
1 2 1
2 3 1
3 2 1
2 4 1
4 2 1
2 5 1
5 6 1
6 7 1
7 8 1
12 6 1
12 13 1
13 11 1
6 13 1
13 6 1
14 15 1
15 6 1
6 16 1
16 6 1
6 17 1
17 14 1
8 19 1
19 8 1
20 21 1
24 14 1
23 25 1
25 6 1
24 26 1
26 27 1
27 6 1
14 30 1
6 31 1
31 6 1
6 32 1
32 6 1
6 33 1
33 9 1
8 34 1
34 35 1
35 6 1
34 25 1
6 30 1
30 36 1
36 6 1
25 28 1
28 14 1
30 34 1
8 22 1
37 30 1
30 6 1
6 40 1
40 6 1
39 28 1
28 42 1
6 43 1
43 28 1
28 44 1
44 28 1
6 46 1
46 28 1
6 47 1
47 48 1
48 6 1
28 18 1
18 42 1
42 18 1
6 50 1
