8 12 63
12 8 61
12 3 52
3 12 45
4 3 22
21 12 20
12 21 18
3 4 17
3 8 14
12 25 14
4 12 13
21 3 13
25 12 13
3 21 13
12 4 12
8 21 11
21 8 11
8 3 8
12 13 7
13 12 6
6 12 6
21 4 6
8 6 6
6 3 5
6 11 5
11 6 5
3 6 5
12 6 5
22 19 5
4 6 5
6 21 5
4 21 5
10 6 4
6 10 4
3 18 4
8 19 4
12 22 4
18 4 4
6 4 4
11 10 4
6 7 3
7 6 3
10 11 3
10 12 3
6 8 3
19 8 3
8 22 3
22 8 3
22 18 3
20 8 3
8 4 3
19 22 3
14 12 2
18 12 2
18 3 2
19 3 2
3 19 2
8 20 2
22 12 2
19 21 2
21 22 2
3 20 2
18 22 2
24 12 2
12 24 2
4 8 2
22 21 2
21 6 2
12 10 2
1 2 1
2 3 1
3 5 1
5 6 1
3 1 1
1 3 1
3 9 1
9 3 1
3 10 1
13 14 1
12 14 1
12 15 1
15 12 1
12 16 1
16 12 1
12 17 1
17 12 1
12 18 1
20 12 1
21 19 1
19 20 1
20 22 1
12 23 1
23 8 1
8 23 1
23 24 1
24 23 1
23 12 1
25 8 1
11 9 1
9 4 1
21 18 1
19 18 1
4 19 1
19 4 1
21 26 1
26 27 1
27 11 1
6 28 1
28 12 1
10 3 1
3 29 1
29 12 1
8 1 1
1 21 1
3 11 1
