3 1 77
1 3 71
1 5 36
1 4 36
5 1 35
4 1 34
3 4 33
5 3 27
4 3 25
3 5 23
14 13 16
4 5 13
13 14 13
1 2 11
2 1 10
42 43 10
5 4 9
43 42 9
3 43 9
1 13 8
13 1 8
43 3 8
3 14 7
14 3 7
4 20 6
1 43 6
13 2 6
2 3 5
1 10 5
2 14 5
43 1 5
43 4 5
14 1 4
6 3 4
10 1 4
14 2 4
20 4 4
1 42 4
43 5 4
2 13 4
4 43 4
8 66 4
1 14 3
17 3 3
3 6 3
20 9 3
42 1 3
5 43 3
4 44 3
13 4 3
5 13 3
66 8 3
3 63 3
6 7 2
7 6 2
9 3 2
12 1 2
13 5 2
3 16 2
16 3 2
1 17 2
5 14 2
14 28 2
9 20 2
3 2 2
2 33 2
33 2 2
35 3 2
5 42 2
1 44 2
5 44 2
44 3 2
50 51 2
3 58 2
58 3 2
65 3 2
3 8 2
3 28 2
4 67 2
63 4 2
3 67 2
5 32 2
1 6 1
6 1 1
5 8 1
8 1 1
3 9 1
10 11 1
11 12 1
4 14 1
14 15 1
15 14 1
4 6 1
3 18 1
18 4 1
4 19 1
19 3 1
20 5 1
3 12 1
12 21 1
21 22 1
22 1 1
3 23 1
23 3 1
3 10 1
10 3 1
14 24 1
24 14 1
14 25 1
25 14 1
14 26 1
26 14 1
14 27 1
27 1 1
28 2 1
14 29 1
29 14 1
2 30 1
30 5 1
3 31 1
31 3 1
4 32 1
32 5 1
33 3 1
3 33 1
20 34 1
34 20 1
4 35 1
1 36 1
36 1 1
4 2 1
28 14 1
13 37 1
37 38 1
38 39 1
39 2 1
2 40 1
40 13 1
3 41 1
41 3 1
44 35 1
35 1 1
44 43 1
3 35 1
35 36 1
36 5 1
42 5 1
5 35 1
44 42 1
43 44 1
44 2 1
13 45 1
45 46 1
46 28 1
28 46 1
46 47 1
47 46 1
46 48 1
48 14 1
1 49 1
49 1 1
1 50 1
51 52 1
52 3 1
1 53 1
53 54 1
54 1 1
1 55 1
55 50 1
51 3 1
3 56 1
56 3 1
5 57 1
57 5 1
5 59 1
59 4 1
4 60 1
60 59 1
59 61 1
61 1 1
1 61 1
61 3 1
4 27 1
27 4 1
44 61 1
61 4 1
43 62 1
62 3 1
13 63 1
63 2 1
13 3 1
42 3 1
2 63 1
63 5 1
13 35 1
35 13 1
3 64 1
64 13 1
13 44 1
44 13 1
4 13 1
4 65 1
3 65 1
66 3 1
8 14 1
58 1 1
2 5 1
28 3 1
1 64 1
64 5 1
1 67 1
67 5 1
67 63 1
4 63 1
63 3 1
28 13 1
42 68 1
68 13 1
3 42 1
63 1 1
63 17 1
1 58 1
67 3 1
67 4 1
67 35 1
35 9 1
20 3 1
3 13 1
13 69 1
69 1 1
1 70 1
70 71 1
71 32 1
32 20 1
9 5 1
32 72 1
72 5 1
32 3 1
42 4 1
1 68 1
68 4 1
5 73 1
73 1 1
1 12 1
44 1 1
4 74 1
