17 3 74
3 5 68
3 17 68
5 3 66
3 11 15
11 3 13
5 2 12
2 3 11
3 2 11
2 5 11
11 12 8
3 6 6
3 8 6
8 3 6
12 11 6
5 39 6
39 5 6
6 3 5
32 3 4
18 5 3
5 17 3
3 32 3
3 34 3
34 3 3
7 5 2
3 14 2
14 3 2
3 15 2
15 3 2
12 3 2
5 18 2
21 8 2
8 24 2
3 33 2
33 17 2
8 38 2
38 8 2
1 2 1
3 4 1
4 3 1
3 7 1
5 9 1
9 3 1
3 10 1
10 3 1
11 13 1
13 3 1
3 16 1
16 11 1
3 18 1
5 7 1
2 7 1
7 2 1
2 19 1
19 5 1
5 20 1
20 3 1
3 21 1
8 21 1
11 22 1
22 11 1
11 17 1
17 8 1
3 23 1
23 8 1
24 8 1
24 3 1
8 17 1
6 5 1
3 25 1
25 3 1
3 26 1
26 27 1
27 3 1
17 11 1
3 28 1
28 17 1
17 29 1
29 3 1
5 30 1
30 5 1
17 2 1
2 31 1
31 5 1
5 31 1
31 20 1
20 17 1
17 32 1
5 35 1
35 3 1
3 36 1
36 3 1
3 37 1
37 17 1
17 5 1
8 6 1
6 17 1
2 17 1
3 39 1
39 3 1
17 40 1
40 17 1
3 1 1
