19 2 80
2 19 74
2 10 54
10 2 52
19 7 30
18 19 30
7 19 29
19 18 27
2 18 21
2 7 20
7 2 18
13 2 18
18 13 18
2 13 17
13 18 17
18 2 17
1 2 15
2 1 13
6 7 12
19 6 12
17 18 11
18 17 11
6 19 10
18 6 10
6 18 9
18 8 9
7 6 8
7 18 5
8 18 5
2 4 4
2 12 4
12 2 4
19 32 4
36 2 4
2 3 3
3 2 3
4 2 3
2 6 3
13 10 3
10 13 3
13 6 3
2 36 3
2 5 2
8 6 2
6 2 2
11 10 2
6 13 2
8 13 2
18 7 2
13 19 2
8 19 2
10 18 2
11 19 2
32 19 2
32 2 2
5 2 1
5 1 1
4 1 1
1 6 1
6 8 1
6 9 1
9 2 1
10 11 1
2 11 1
12 13 1
13 14 1
14 2 1
13 12 1
10 15 1
15 10 1
10 16 1
16 10 1
10 17 1
17 19 1
7 20 1
20 19 1
18 21 1
21 18 1
2 22 1
22 2 1
6 23 1
23 8 1
6 24 1
24 6 1
18 25 1
25 18 1
2 26 1
26 2 1
8 2 1
2 8 1
19 8 1
18 10 1
8 27 1
27 13 1
2 28 1
28 13 1
19 29 1
29 19 1
2 30 1
30 18 1
7 31 1
31 24 1
24 2 1
7 24 1
24 7 1
7 11 1
19 11 1
6 32 1
19 33 1
33 19 1
32 33 1
33 2 1
19 34 1
34 19 1
2 32 1
32 35 1
35 19 1
10 36 1
36 37 1
37 36 1
18 38 1
38 18 1
18 39 1
39 18 1
7 17 1
17 7 1
7 40 1
40 19 1
