14 6 32
6 14 30
5 14 23
14 5 22
14 10 14
10 14 11
16 17 11
17 16 9
13 14 8
15 16 8
14 24 8
5 6 7
16 15 7
17 3 7
3 17 7
24 14 7
6 5 6
6 10 6
10 6 6
14 13 6
15 26 5
19 6 4
26 15 3
6 19 3
3 5 2
3 7 2
6 11 2
11 6 2
16 19 2
18 16 2
14 22 2
22 14 2
10 5 2
26 27 2
27 15 2
1 2 1
2 3 1
3 4 1
4 3 1
5 3 1
7 3 1
3 8 1
8 9 1
9 3 1
11 12 1
12 6 1
6 13 1
6 15 1
15 17 1
17 18 1
18 17 1
17 15 1
19 16 1
19 15 1
15 18 1
16 18 1
17 10 1
10 20 1
20 14 1
14 21 1
21 14 1
10 22 1
6 23 1
23 16 1
17 5 1
14 3 1
3 14 1
6 3 1
7 10 1
24 5 1
5 13 1
5 16 1
17 25 1
25 26 1
27 26 1
26 28 1
28 27 1
27 28 1
28 15 1
26 29 1
29 27 1
15 14 1
14 9 1
9 14 1
14 30 1
30 14 1
5 31 1
31 5 1
22 5 1
5 22 1
22 19 1
6 18 1
18 6 1
5 17 1
16 14 1
10 11 1
6 7 1
7 6 1
6 32 1
