4 5 35
5 4 32
3 4 24
4 3 23
3 5 13
5 3 12
24 25 12
25 24 12
10 11 11
11 10 11
10 22 11
22 10 11
18 10 10
10 18 10
12 10 7
4 13 6
8 10 5
10 12 5
10 4 5
3 13 5
13 3 5
13 4 5
9 13 5
13 9 5
10 8 4
30 4 4
4 10 4
19 3 3
3 30 3
11 4 3
4 11 3
8 9 2
9 8 2
17 18 2
3 19 2
10 20 2
27 28 2
10 29 2
31 19 2
19 31 2
4 30 2
32 19 2
19 32 2
32 4 2
4 32 2
35 4 2
1 2 1
2 3 1
3 6 1
6 3 1
3 7 1
7 3 1
4 8 1
11 12 1
3 14 1
14 3 1
3 15 1
15 9 1
9 3 1
5 9 1
5 13 1
13 5 1
9 5 1
4 16 1
16 4 1
13 17 1
18 17 1
18 4 1
5 19 1
5 20 1
20 21 1
21 10 1
20 11 1
10 23 1
23 3 1
3 24 1
24 4 1
4 26 1
26 3 1
3 27 1
28 27 1
28 10 1
29 4 1
30 31 1
31 3 1
4 12 1
20 10 1
29 3 1
3 29 1
29 32 1
32 3 1
4 33 1
33 3 1
5 22 1
22 34 1
34 11 1
5 11 1
11 35 1
4 35 1
3 35 1
35 3 1
11 3 1
3 36 1
