4 16 21
16 4 19
3 4 16
4 3 13
16 3 13
7 14 12
14 7 11
3 16 10
7 18 10
18 7 9
4 5 7
15 4 6
5 4 5
6 7 5
13 7 5
7 6 4
7 13 4
3 17 4
4 15 4
7 8 3
11 3 3
3 11 3
3 12 3
12 3 3
17 3 3
3 23 3
23 3 3
3 15 3
8 7 2
9 4 2
4 10 2
10 3 2
4 11 2
11 4 2
19 7 2
3 5 2
26 25 2
28 30 2
5 7 2
15 3 2
1 2 1
2 3 1
4 6 1
8 6 1
7 4 1
4 9 1
3 10 1
10 4 1
3 9 1
5 12 1
12 13 1
14 15 1
17 16 1
16 17 1
17 7 1
18 19 1
7 16 1
5 3 1
3 20 1
20 3 1
5 21 1
21 22 1
22 3 1
15 24 1
24 25 1
25 24 1
24 26 1
25 26 1
25 7 1
6 8 1
8 27 1
27 28 1
28 29 1
29 28 1
30 28 1
30 4 1
7 5 1
5 14 1
14 5 1
7 15 1
4 14 1
14 4 1
4 7 1
7 19 1
7 3 1
4 21 1
21 4 1
4 31 1
