5 21 40
21 5 39
5 38 22
38 5 21
12 5 13
38 23 13
23 38 12
5 12 10
28 5 7
45 38 7
38 45 7
5 14 6
37 38 6
14 12 5
27 28 5
36 37 5
27 38 5
38 27 5
14 5 4
5 27 4
27 5 4
28 30 4
37 36 4
38 33 4
38 37 4
13 14 3
20 5 3
5 28 3
28 29 3
29 28 3
5 13 2
14 13 2
14 15 2
18 5 2
5 20 2
5 23 2
30 28 2
5 35 2
33 27 2
33 38 2
33 28 2
28 33 2
38 28 2
12 14 2
1 2 1
2 3 1
3 4 1
4 5 1
5 6 1
6 7 1
7 8 1
8 7 1
7 9 1
9 10 1
10 11 1
11 5 1
5 2 1
2 5 1
13 5 1
15 5 1
5 15 1
15 6 1
6 14 1
15 14 1
14 16 1
16 12 1
5 17 1
17 18 1
5 18 1
5 19 1
19 20 1
20 18 1
18 20 1
21 22 1
22 5 1
23 21 1
21 23 1
23 5 1
5 24 1
24 5 1
5 25 1
25 26 1
26 27 1
28 27 1
30 31 1
31 28 1
30 32 1
32 30 1
30 27 1
27 30 1
30 33 1
33 34 1
34 35 1
35 5 1
35 36 1
33 20 1
20 33 1
33 39 1
39 27 1
38 40 1
40 14 1
14 37 1
38 41 1
41 42 1
42 38 1
23 2 1
2 12 1
12 2 1
2 27 1
27 33 1
5 43 1
43 44 1
44 38 1
28 38 1
23 14 1
35 38 1
12 45 1
45 5 1
