17 2 31
22 2 30
2 22 28
2 17 26
2 14 21
14 2 17
14 17 17
17 14 11
2 9 8
9 2 7
16 2 7
2 16 6
6 2 5
17 22 5
2 6 4
22 17 4
9 14 3
12 9 2
2 19 2
19 2 2
14 22 2
2 15 2
1 2 1
2 3 1
3 4 1
4 2 1
2 5 1
5 2 1
2 4 1
4 7 1
7 8 1
8 9 1
9 6 1
2 10 1
10 2 1
2 11 1
11 12 1
12 2 1
2 13 1
13 2 1
14 9 1
14 15 1
15 12 1
9 16 1
16 17 1
17 9 1
9 12 1
2 18 1
18 2 1
2 20 1
20 14 1
17 18 1
18 15 1
15 18 1
18 17 1
2 21 1
21 2 1
22 14 1
2 23 1
23 24 1
24 14 1
14 24 1
24 16 1
16 24 1
24 2 1
17 16 1
15 2 1
2 25 1
25 17 1
15 14 1
