6 33 49
33 6 43
18 6 39
6 18 37
6 43 25
43 6 21
6 13 11
1 6 10
6 1 9
69 6 8
71 6 8
6 78 8
13 6 7
6 69 7
6 71 7
78 6 6
78 1 6
1 33 5
33 71 5
6 7 4
7 6 4
32 33 4
33 32 4
18 1 4
42 6 4
55 6 4
6 55 4
57 6 4
6 57 4
33 1 4
6 67 4
67 6 4
71 33 4
33 78 4
9 6 3
1 18 3
6 42 3
43 1 3
20 6 3
33 9 3
33 76 3
78 33 3
13 1 2
6 20 2
21 18 2
13 30 2
37 18 2
33 20 2
76 33 2
1 78 2
1 2 1
2 3 1
3 4 1
4 1 1
1 5 1
5 6 1
6 8 1
8 6 1
6 9 1
9 7 1
7 10 1
10 7 1
7 11 1
11 12 1
12 9 1
13 14 1
14 6 1
1 15 1
15 16 1
16 17 1
17 9 1
9 18 1
6 19 1
19 1 1
20 21 1
18 22 1
22 18 1
18 23 1
23 6 1
1 24 1
24 6 1
6 21 1
18 25 1
25 6 1
6 26 1
26 27 1
27 28 1
28 13 1
13 29 1
29 13 1
30 6 1
30 13 1
13 21 1
21 31 1
31 32 1
32 34 1
34 32 1
32 31 1
31 18 1
1 31 1
31 35 1
35 36 1
36 31 1
31 6 1
20 18 1
18 37 1
37 6 1
6 38 1
38 37 1
6 37 1
6 39 1
39 6 1
6 40 1
40 6 1
18 41 1
41 6 1
33 42 1
43 44 1
44 45 1
45 6 1
43 33 1
33 46 1
46 1 1
1 47 1
47 1 1
1 48 1
48 49 1
49 6 1
6 50 1
50 18 1
18 51 1
51 18 1
1 28 1
28 52 1
52 6 1
6 52 1
52 1 1
1 43 1
43 9 1
1 53 1
53 1 1
18 54 1
54 6 1
1 20 1
1 55 1
55 56 1
56 55 1
55 20 1
20 57 1
57 58 1
58 57 1
57 18 1
6 59 1
59 1 1
33 60 1
60 33 1
33 11 1
11 6 1
33 61 1
61 33 1
33 62 1
62 1 1
1 63 1
63 33 1
33 15 1
15 33 1
6 64 1
64 6 1
6 65 1
65 33 1
1 66 1
66 6 1
67 33 1
33 67 1
6 68 1
68 69 1
33 69 1
69 70 1
70 33 1
9 1 1
6 72 1
72 33 1
9 73 1
73 33 1
18 74 1
74 6 1
1 75 1
75 1 1
76 77 1
77 76 1
76 78 1
78 79 1
79 78 1
33 79 1
79 33 1
1 80 1
80 40 1
40 1 1
1 23 1
23 12 1
12 81 1
81 82 1
82 1 1
1 83 1
83 9 1
9 84 1
84 6 1
1 85 1
85 86 1
86 87 1
87 88 1
88 89 1
89 1 1
1 46 1
46 6 1
1 90 1
90 1 1
1 91 1
91 90 1
90 43 1
1 32 1
32 42 1
42 43 1
