2 3 28
3 2 26
8 2 16
2 8 15
6 8 10
2 6 7
6 2 7
8 6 7
12 6 5
8 3 5
3 6 5
2 12 4
2 22 4
22 2 4
1 2 3
3 1 3
6 3 3
6 12 3
19 2 3
1 3 3
4 2 2
5 2 2
3 4 2
6 4 2
12 2 2
12 8 2
2 5 2
8 12 2
31 8 2
2 4 1
1 5 1
4 1 1
3 7 1
7 6 1
4 6 1
3 9 1
9 2 1
2 10 1
10 11 1
11 2 1
6 13 1
13 6 1
2 14 1
14 2 1
12 10 1
10 6 1
6 15 1
15 6 1
2 16 1
16 2 1
2 17 1
17 3 1
3 18 1
18 2 1
2 19 1
3 20 1
20 2 1
5 21 1
21 1 1
2 1 1
3 22 1
22 8 1
8 22 1
22 23 1
23 22 1
22 3 1
3 19 1
3 8 1
22 1 1
1 8 1
2 24 1
24 8 1
2 25 1
25 12 1
6 26 1
26 22 1
2 27 1
27 2 1
2 28 1
28 3 1
2 29 1
29 3 1
3 30 1
30 2 1
4 3 1
8 19 1
6 31 1
8 32 1
32 31 1
