2 6 14
13 2 14
6 2 13
7 13 11
7 2 10
30 10 10
13 7 10
2 13 10
2 7 9
10 30 9
36 13 8
13 36 7
2 48 7
48 2 7
2 3 6
2 4 6
10 7 6
2 22 6
23 2 6
2 31 6
7 36 6
3 2 5
2 11 5
11 2 5
2 19 5
22 23 5
7 20 5
27 2 5
27 7 5
7 27 5
36 7 5
43 38 5
38 43 5
2 38 5
38 2 5
4 2 4
19 2 4
12 7 4
7 10 4
2 27 4
31 2 4
13 30 4
30 13 4
36 10 4
10 36 4
7 9 3
20 2 3
2 23 3
20 7 3
34 2 3
2 34 3
30 2 3
2 30 3
35 10 3
10 3 3
46 9 3
13 4 3
4 13 3
4 5 2
5 2 2
7 8 2
9 8 2
8 10 2
15 16 2
17 2 2
2 17 2
7 18 2
22 2 2
7 22 2
22 7 2
25 12 2
7 12 2
31 7 2
2 36 2
36 38 2
16 2 2
2 16 2
38 41 2
41 38 2
9 46 2
1 2 1
5 4 1
2 5 1
6 7 1
8 7 1
9 10 1
9 7 1
2 12 1
12 13 1
2 14 1
14 15 1
16 17 1
17 7 1
18 7 1
18 2 1
2 20 1
19 20 1
2 21 1
21 2 1
2 24 1
24 7 1
23 22 1
23 25 1
7 25 1
20 12 1
12 20 1
10 25 1
25 26 1
26 2 1
2 28 1
28 27 1
10 2 1
2 10 1
7 19 1
19 7 1
20 29 1
29 30 1
10 8 1
8 30 1
30 31 1
7 31 1
31 32 1
32 2 1
31 33 1
33 2 1
4 34 1
34 13 1
30 7 1
7 30 1
30 35 1
10 35 1
3 10 1
3 35 1
3 36 1
36 2 1
36 37 1
37 30 1
38 36 1
36 16 1
16 39 1
39 16 1
16 38 1
38 40 1
40 38 1
38 7 1
2 42 1
42 43 1
43 44 1
44 15 1
15 44 1
44 45 1
45 16 1
16 15 1
16 46 1
8 9 1
9 36 1
38 10 1
10 47 1
47 7 1
2 49 1
49 2 1
3 11 1
11 50 1
50 51 1
