16 1 57
1 16 56
8 1 45
1 8 44
1 22 32
22 1 31
16 8 26
8 16 21
1 10 12
10 1 11
1 6 10
6 1 9
8 22 8
22 8 8
8 5 8
5 8 8
1 14 7
7 6 6
14 1 6
6 7 5
22 16 5
1 31 5
31 1 5
5 1 4
1 13 4
16 22 4
13 1 4
1 5 4
19 1 3
8 21 3
21 16 3
21 8 3
1 23 3
21 1 3
23 22 3
8 23 3
23 29 3
1 21 3
2 1 2
13 14 2
14 6 2
6 14 2
14 7 2
16 21 2
22 21 2
29 22 2
8 29 2
31 13 2
32 1 2
5 22 2
22 13 2
22 29 2
29 8 2
1 2 1
1 3 1
3 4 1
4 5 1
1 9 1
9 10 1
10 11 1
11 10 1
10 12 1
12 10 1
8 2 1
13 7 1
7 13 1
7 14 1
14 13 1
7 9 1
9 8 1
8 15 1
15 8 1
1 17 1
17 8 1
1 7 1
6 13 1
13 18 1
18 19 1
6 16 1
8 20 1
20 16 1
23 1 1
22 23 1
8 24 1
24 16 1
8 25 1
25 1 1
1 26 1
26 1 1
1 27 1
27 28 1
28 8 1
29 23 1
23 8 1
29 1 1
29 10 1
10 16 1
1 30 1
30 1 1
8 14 1
14 31 1
31 6 1
6 31 1
13 31 1
13 19 1
8 19 1
19 8 1
8 32 1
1 32 1
10 9 1
9 16 1
22 5 1
13 22 1
22 14 1
14 22 1
1 33 1
33 1 1
21 34 1
34 1 1
8 4 1
4 8 1
10 35 1
35 36 1
36 1 1
16 19 1
14 8 1
