51 25 44
25 51 43
104 51 20
51 104 18
16 17 13
17 16 13
73 63 12
63 73 11
63 82 11
45 25 10
82 63 10
25 45 9
22 16 6
60 51 6
51 60 6
25 35 6
25 82 6
51 82 6
16 63 6
63 104 6
16 25 5
35 25 5
82 25 5
25 16 5
63 51 4
57 51 4
63 74 4
74 63 4
63 25 4
82 51 4
51 16 4
63 16 4
104 63 4
60 104 4
51 63 4
25 120 4
35 37 3
37 35 3
51 57 3
62 63 3
65 63 3
87 51 3
35 51 3
25 63 3
105 104 3
63 62 3
104 60 3
82 104 3
104 82 3
120 25 3
16 23 2
17 22 2
17 23 2
23 17 2
16 22 2
25 17 2
25 19 2
42 25 2
25 38 2
51 53 2
51 67 2
57 65 2
51 65 2
16 51 2
51 83 2
83 51 2
25 103 2
103 25 2
104 105 2
104 106 2
106 104 2
51 105 2
115 63 2
63 11 2
11 63 2
45 63 2
1 2 1
2 1 1
1 3 1
3 1 1
1 4 1
4 5 1
5 6 1
6 7 1
7 8 1
8 6 1
6 9 1
9 10 1
10 11 1
11 6 1
6 12 1
12 13 1
13 6 1
6 14 1
14 6 1
6 15 1
15 16 1
16 18 1
18 17 1
17 19 1
19 16 1
16 20 1
20 21 1
21 22 1
23 22 1
23 16 1
17 24 1
24 16 1
17 25 1
25 26 1
26 17 1
25 23 1
23 25 1
16 27 1
27 17 1
16 28 1
28 29 1
29 25 1
25 30 1
30 31 1
31 32 1
32 33 1
33 25 1
19 34 1
34 35 1
35 36 1
36 35 1
37 38 1
38 39 1
39 40 1
40 25 1
25 41 1
41 25 1
25 42 1
25 43 1
43 44 1
44 45 1
45 42 1
38 46 1
46 47 1
47 48 1
48 49 1
49 50 1
50 51 1
51 52 1
52 51 1
53 51 1
53 54 1
54 53 1
53 55 1
55 56 1
56 51 1
57 58 1
58 57 1
57 53 1
53 59 1
59 60 1
51 61 1
61 62 1
63 64 1
64 65 1
63 66 1
66 63 1
63 65 1
63 57 1
57 63 1
67 68 1
68 57 1
65 57 1
65 66 1
66 57 1
57 69 1
69 57 1
57 62 1
62 51 1
51 70 1
70 51 1
65 71 1
71 51 1
51 72 1
72 57 1
65 73 1
63 75 1
75 63 1
25 76 1
76 51 1
51 77 1
77 37 1
25 78 1
78 25 1
25 79 1
79 35 1
35 80 1
80 35 1
35 81 1
81 25 1
19 25 1
82 16 1
16 82 1
25 83 1
83 82 1
25 84 1
84 25 1
82 85 1
85 82 1
16 86 1
86 16 1
25 87 1
87 88 1
88 25 1
25 89 1
89 25 1
16 90 1
90 91 1
91 25 1
51 92 1
92 25 1
51 93 1
93 51 1
25 94 1
94 87 1
25 31 1
31 95 1
95 28 1
28 87 1
16 87 1
51 80 1
80 29 1
29 51 1
25 96 1
96 97 1
97 51 1
51 98 1
98 80 1
80 25 1
51 99 1
99 25 1
25 100 1
100 25 1
51 101 1
101 51 1
51 35 1
51 102 1
102 35 1
35 45 1
106 25 1
25 106 1
63 107 1
107 65 1
63 60 1
60 66 1
66 108 1
108 51 1
104 57 1
67 104 1
105 51 1
51 106 1
106 51 1
104 109 1
109 51 1
104 16 1
104 110 1
110 82 1
82 111 1
111 104 1
82 112 1
112 63 1
63 113 1
113 114 1
114 115 1
63 115 1
63 116 1
116 117 1
117 25 1
25 118 1
118 63 1
62 73 1
63 119 1
119 120 1
120 121 1
121 120 1
120 45 1
45 122 1
122 45 1
120 63 1
25 123 1
123 63 1
82 124 1
124 125 1
125 126 1
126 51 1
16 127 1
127 16 1
82 128 1
128 63 1
63 129 1
129 130 1
130 51 1
63 131 1
131 45 1
73 132 1
132 73 1
73 25 1
16 133 1
133 63 1
63 134 1
134 135 1
135 25 1
25 132 1
132 136 1
136 11 1
11 132 1
132 25 1
82 137 1
137 25 1
25 138 1
138 63 1
63 139 1
139 25 1
63 140 1
140 25 1
25 141 1
141 101 1
101 25 1
38 25 1
82 142 1
