3 8 19
2 3 18
3 2 18
8 3 18
23 3 13
3 23 11
67 3 10
3 67 10
3 6 8
6 8 8
3 5 7
9 3 7
20 3 7
3 20 7
8 6 6
5 3 6
3 9 6
6 3 5
6 9 5
21 3 5
24 3 5
57 3 5
3 57 5
63 3 5
3 63 5
3 4 4
4 3 4
6 5 4
20 8 4
8 20 4
3 21 4
3 24 4
56 3 4
3 56 4
2 62 4
5 6 3
5 7 3
7 6 3
3 7 3
7 3 3
7 5 3
9 8 3
8 7 3
5 8 3
16 3 3
8 5 3
23 24 3
24 23 3
5 38 3
3 47 3
3 52 3
62 3 3
3 62 3
62 63 3
62 2 3
9 5 2
7 9 2
9 7 2
9 6 2
15 7 2
7 15 2
3 16 2
8 17 2
5 25 2
6 7 2
38 5 2
5 39 2
39 5 2
52 3 2
61 3 2
63 62 2
2 64 2
64 2 2
3 71 2
71 72 2
72 3 2
76 67 2
76 3 2
3 76 2
1 2 1
5 9 1
8 10 1
10 8 1
8 11 1
11 5 1
5 11 1
11 9 1
3 12 1
12 13 1
13 9 1
8 14 1
14 9 1
6 15 1
15 8 1
8 15 1
15 3 1
8 16 1
16 8 1
17 8 1
17 18 1
18 19 1
19 6 1
5 20 1
3 22 1
22 23 1
24 6 1
7 8 1
8 9 1
25 26 1
26 7 1
7 27 1
27 3 1
9 16 1
3 28 1
28 3 1
3 29 1
29 30 1
30 31 1
31 30 1
30 32 1
32 30 1
30 8 1
8 21 1
21 8 1
8 23 1
5 33 1
33 5 1
25 3 1
3 25 1
25 34 1
34 3 1
7 35 1
35 3 1
3 26 1
26 36 1
36 37 1
37 5 1
38 6 1
3 36 1
36 9 1
9 38 1
38 3 1
9 40 1
40 41 1
41 3 1
20 42 1
42 21 1
3 43 1
43 44 1
44 36 1
36 45 1
45 21 1
21 46 1
46 3 1
47 48 1
48 49 1
49 48 1
48 50 1
50 27 1
27 51 1
51 24 1
52 24 1
47 3 1
47 53 1
53 54 1
54 55 1
55 3 1
3 55 1
55 56 1
56 55 1
55 57 1
57 58 1
58 59 1
59 57 1
57 60 1
60 57 1
57 56 1
56 57 1
57 61 1
3 61 1
62 13 1
13 62 1
63 2 1
64 3 1
3 64 1
2 13 1
13 65 1
65 66 1
66 67 1
67 68 1
68 67 1
67 69 1
69 70 1
70 3 1
3 72 1
72 73 1
73 74 1
74 75 1
75 76 1
67 76 1
67 77 1
77 76 1
