10 8 23
8 10 21
10 7 19
7 10 18
7 8 16
8 7 14
10 18 12
18 19 9
18 7 9
7 18 9
18 10 9
8 21 7
19 18 6
21 8 6
9 10 4
15 10 4
10 21 4
6 7 3
18 8 3
21 10 3
42 40 3
7 6 2
8 12 2
8 18 2
19 10 2
20 8 2
8 20 2
30 29 2
29 9 2
9 31 2
31 9 2
9 8 2
8 32 2
32 10 2
36 8 2
8 39 2
39 40 2
8 40 2
40 42 2
42 8 2
1 2 1
2 3 1
3 4 1
4 5 1
5 6 1
8 9 1
10 11 1
11 9 1
10 9 1
12 10 1
10 13 1
13 10 1
7 14 1
14 9 1
12 15 1
10 12 1
12 16 1
16 17 1
17 15 1
10 15 1
7 20 1
20 7 1
21 22 1
22 8 1
8 22 1
22 21 1
21 7 1
8 23 1
23 19 1
19 23 1
23 8 1
7 24 1
24 25 1
25 26 1
26 27 1
27 28 1
28 18 1
10 23 1
23 29 1
29 30 1
9 30 1
8 15 1
10 32 1
32 9 1
9 33 1
33 9 1
10 34 1
34 7 1
19 35 1
35 10 1
10 36 1
36 10 1
10 37 1
37 10 1
21 36 1
8 36 1
21 38 1
38 15 1
15 21 1
39 8 1
40 39 1
40 8 1
40 41 1
41 42 1
40 43 1
43 42 1
8 42 1
40 21 1
21 15 1
15 44 1
44 8 1
8 45 1
45 8 1
8 46 1
46 8 1
8 47 1
47 15 1
15 48 1
48 49 1
49 9 1
9 15 1
15 50 1
50 51 1
