2 10 72
10 2 70
1 20 38
20 1 38
10 24 37
24 10 36
10 1 31
1 10 30
1 24 24
10 15 23
15 10 22
24 1 21
1 2 12
9 1 12
30 10 12
10 30 12
1 9 11
2 7 10
7 2 9
34 1 8
1 34 8
2 1 7
10 17 6
2 5 5
5 2 5
17 10 5
25 10 5
1 33 5
33 1 5
36 1 5
10 12 4
2 17 4
20 10 4
24 2 4
2 25 4
10 25 4
15 30 4
2 34 4
1 36 4
9 2 4
2 9 4
2 6 3
6 2 3
12 10 3
17 1 3
25 2 3
34 10 3
34 2 3
30 15 3
24 20 3
38 25 3
25 38 3
10 11 2
10 13 2
16 1 2
17 2 2
1 18 2
18 1 2
10 20 2
2 38 2
38 2 2
10 38 2
2 3 1
3 2 1
2 4 1
4 2 1
7 8 1
8 9 1
9 10 1
11 10 1
13 14 1
14 10 1
10 14 1
14 15 1
1 16 1
1 19 1
19 1 1
1 21 1
21 7 1
2 16 1
1 22 1
22 1 1
1 7 1
7 1 1
1 11 1
11 15 1
15 11 1
11 1 1
1 23 1
23 1 1
2 20 1
10 26 1
26 10 1
10 27 1
27 10 1
10 28 1
28 10 1
2 29 1
29 30 1
30 31 1
31 1 1
1 32 1
32 1 1
33 10 1
30 24 1
24 34 1
15 24 1
10 34 1
10 35 1
35 10 1
20 24 1
12 1 1
30 36 1
1 12 1
12 30 1
10 9 1
20 37 1
37 2 1
13 2 1
38 11 1
11 38 1
38 10 1
38 24 1
2 39 1
39 2 1
1 3 1
3 1 1
7 9 1
9 33 1
1 40 1
40 8 1
8 10 1
10 40 1
40 10 1
2 41 1
41 2 1
10 42 1
42 1 1
10 43 1
43 10 1
11 44 1
44 10 1
