12 3 69
3 12 61
3 15 38
15 3 38
16 3 31
3 16 29
5 3 28
3 5 28
3 22 15
31 3 15
2 3 14
3 2 14
22 15 14
22 24 14
15 22 13
3 31 12
41 3 12
3 41 12
15 12 11
16 12 11
22 3 11
24 22 11
12 16 10
4 3 9
3 4 9
12 15 9
10 3 8
15 16 8
3 10 7
3 25 7
25 3 7
4 5 6
3 13 6
3 17 6
41 42 6
5 4 5
16 15 5
25 28 5
5 32 5
37 3 5
22 33 5
33 22 5
42 41 5
44 3 5
7 3 4
13 12 4
13 3 4
3 19 4
28 25 4
3 37 4
40 12 4
12 40 4
41 12 4
5 16 4
16 5 4
3 44 4
47 3 4
3 47 4
48 41 4
41 48 4
51 22 4
3 7 3
10 12 3
12 13 3
17 3 3
3 18 3
19 3 3
3 20 3
29 3 3
3 29 3
32 5 3
3 40 3
12 41 3
3 8 2
3 9 2
9 10 2
12 9 2
14 15 2
17 15 2
18 3 2
20 13 2
13 20 2
20 15 2
20 3 2
27 3 2
29 30 2
31 22 2
22 31 2
5 34 2
34 5 2
3 38 2
38 3 2
3 39 2
39 3 2
40 41 2
25 43 2
15 45 2
50 51 2
22 51 2
12 22 2
33 12 2
1 2 1
2 4 1
3 6 1
6 7 1
8 3 1
8 9 1
9 3 1
9 11 1
11 3 1
9 12 1
12 10 1
13 14 1
14 12 1
15 14 1
17 14 1
18 16 1
19 15 1
15 21 1
21 15 1
15 20 1
16 23 1
23 16 1
24 15 1
3 26 1
26 3 1
24 27 1
3 27 1
27 12 1
12 25 1
28 29 1
30 3 1
3 30 1
30 29 1
30 31 1
32 31 1
15 31 1
22 5 1
32 30 1
30 33 1
33 5 1
5 28 1
28 13 1
13 27 1
22 35 1
35 22 1
12 36 1
36 12 1
16 37 1
39 12 1
12 39 1
40 22 1
24 41 1
40 3 1
41 40 1
42 25 1
43 25 1
43 5 1
5 44 1
45 15 1
45 46 1
46 15 1
15 47 1
47 33 1
3 48 1
48 49 1
49 12 1
12 50 1
22 50 1
22 12 1
3 21 1
21 3 1
22 52 1
52 53 1
53 54 1
54 55 1
55 53 1
53 56 1
56 12 1
22 16 1
12 33 1
16 10 1
