14 15 30
3 4 27
15 14 27
22 14 27
14 22 26
4 3 24
6 7 23
7 6 19
22 13 19
13 22 18
22 6 15
6 22 14
13 14 13
14 53 13
13 15 12
15 13 12
53 14 12
14 13 11
7 10 11
10 7 11
6 10 11
14 7 11
10 6 10
7 14 10
53 54 10
54 53 9
22 15 8
10 27 8
15 22 7
27 10 7
10 47 7
27 14 7
7 15 6
14 27 6
4 6 5
21 22 5
47 10 5
15 7 5
2 3 4
3 2 4
7 4 4
13 6 4
27 7 4
7 39 4
4 10 3
15 21 3
14 21 3
39 7 3
17 27 3
14 48 3
48 14 3
58 10 3
2 4 2
7 3 2
4 8 2
10 4 2
6 13 2
17 13 2
6 14 2
21 13 2
24 14 2
21 14 2
22 10 2
17 10 2
10 31 2
6 27 2
7 27 2
6 43 2
6 44 2
31 27 2
47 6 2
47 14 2
4 14 2
14 10 2
14 54 2
58 47 2
47 58 2
10 58 2
31 14 2
1 2 1
4 2 1
3 5 1
5 4 1
8 4 1
3 6 1
6 9 1
9 4 1
4 11 1
11 4 1
4 12 1
12 13 1
13 16 1
16 13 1
13 4 1
4 13 1
13 3 1
4 17 1
13 18 1
18 19 1
19 13 1
13 20 1
20 14 1
14 23 1
23 21 1
14 24 1
14 25 1
25 14 1
13 17 1
15 26 1
26 13 1
10 28 1
28 13 1
13 21 1
22 29 1
29 10 1
10 30 1
30 22 1
10 22 1
6 21 1
6 17 1
31 32 1
32 7 1
8 33 1
33 7 1
7 34 1
34 8 1
8 7 1
6 35 1
35 7 1
7 36 1
36 7 1
7 37 1
37 6 1
27 6 1
7 38 1
38 7 1
39 10 1
27 40 1
40 4 1
10 3 1
10 41 1
41 42 1
42 6 1
43 6 1
43 4 1
44 10 1
10 17 1
27 45 1
45 17 1
27 46 1
46 27 1
7 31 1
4 47 1
47 48 1
48 47 1
14 12 1
12 15 1
15 4 1
15 24 1
27 49 1
49 14 1
14 50 1
50 51 1
51 14 1
14 3 1
14 52 1
52 53 1
53 15 1
15 53 1
53 7 1
54 55 1
55 53 1
54 14 1
53 56 1
56 14 1
54 15 1
15 17 1
6 57 1
57 17 1
17 58 1
47 15 1
7 59 1
59 14 1
15 58 1
58 6 1
44 7 1
7 47 1
14 47 1
14 31 1
14 60 1
60 61 1
61 60 1
60 6 1
6 60 1
60 31 1
27 17 1
14 62 1
62 14 1
14 63 1
63 6 1
14 6 1
10 14 1
