25 23 29
23 25 28
23 30 21
30 23 21
30 22 14
1 23 13
23 1 13
23 88 12
23 11 12
22 30 11
11 23 11
22 1 10
23 22 10
22 25 10
25 22 10
12 30 10
12 11 9
13 6 9
1 22 9
22 23 9
1 12 9
30 12 9
1 11 9
88 23 9
11 1 8
6 13 6
10 11 5
11 12 5
25 1 5
1 30 5
25 30 5
88 90 5
90 88 5
11 25 5
11 10 4
15 1 4
30 1 4
30 25 4
1 45 4
11 68 4
45 23 4
11 6 3
30 10 3
10 30 3
6 1 3
68 11 3
1 17 3
17 1 3
77 23 3
25 11 3
23 17 3
23 45 3
6 2 2
6 12 2
6 14 2
15 17 2
17 15 2
1 19 2
22 6 2
6 26 2
26 6 2
30 24 2
12 1 2
1 50 2
11 48 2
11 43 2
43 11 2
65 12 2
1 6 2
45 43 2
45 1 2
23 77 2
23 78 2
12 15 2
1 25 2
23 73 2
17 23 2
11 100 2
100 11 2
1 2 1
2 3 1
3 4 1
4 5 1
5 6 1
6 7 1
7 6 1
2 6 1
6 4 1
4 6 1
2 8 1
8 9 1
9 10 1
14 12 1
6 15 1
1 16 1
16 15 1
15 18 1
18 15 1
19 20 1
20 19 1
19 12 1
12 21 1
21 1 1
22 12 1
12 22 1
22 24 1
24 22 1
13 27 1
27 22 1
6 28 1
28 25 1
22 10 1
10 23 1
22 29 1
29 23 1
1 31 1
31 1 1
23 32 1
32 23 1
23 33 1
33 23 1
23 34 1
34 23 1
22 35 1
35 22 1
1 36 1
36 25 1
24 30 1
1 37 1
37 25 1
24 1 1
22 38 1
38 39 1
39 30 1
30 40 1
40 22 1
30 41 1
41 30 1
1 42 1
42 43 1
43 44 1
44 45 1
45 46 1
46 45 1
45 15 1
15 45 1
45 21 1
21 47 1
47 30 1
30 43 1
43 46 1
46 30 1
12 48 1
48 49 1
49 12 1
50 1 1
1 51 1
51 1 1
48 11 1
12 52 1
52 14 1
14 53 1
53 13 1
13 54 1
54 13 1
11 55 1
55 11 1
11 56 1
56 1 1
11 57 1
57 11 1
11 58 1
58 11 1
50 11 1
11 59 1
59 60 1
60 61 1
61 1 1
11 62 1
62 11 1
1 63 1
63 11 1
12 64 1
64 11 1
48 65 1
12 66 1
66 45 1
45 67 1
67 1 1
45 11 1
11 45 1
45 17 1
17 11 1
68 1 1
1 69 1
69 15 1
6 70 1
70 6 1
6 27 1
27 6 1
13 71 1
71 62 1
62 1 1
12 13 1
12 19 1
19 51 1
51 45 1
43 45 1
45 72 1
72 45 1
43 73 1
73 10 1
10 46 1
46 10 1
10 73 1
73 74 1
74 73 1
73 15 1
15 75 1
75 76 1
76 1 1
45 73 1
73 77 1
78 23 1
78 79 1
79 23 1
23 80 1
80 23 1
23 24 1
24 23 1
23 81 1
81 23 1
23 82 1
82 25 1
25 15 1
15 73 1
73 21 1
21 10 1
10 83 1
83 73 1
73 12 1
12 65 1
15 84 1
84 85 1
85 1 1
23 13 1
14 13 1
13 23 1
12 86 1
86 87 1
87 88 1
88 25 1
88 89 1
89 23 1
88 13 1
6 9 1
9 51 1
51 23 1
23 90 1
90 23 1
88 15 1
25 51 1
51 44 1
44 12 1
12 42 1
42 12 1
1 91 1
91 92 1
92 1 1
25 91 1
91 12 1
15 59 1
59 10 1
10 1 1
73 23 1
73 1 1
19 93 1
93 1 1
12 45 1
1 94 1
94 12 1
12 94 1
94 25 1
25 94 1
94 18 1
18 1 1
1 95 1
95 23 1
11 96 1
96 1 1
17 51 1
51 97 1
97 1 1
23 98 1
98 23 1
11 99 1
99 11 1
11 21 1
21 11 1
11 44 1
44 11 1
11 24 1
24 25 1
1 101 1
101 26 1
26 71 1
71 13 1
