11 2 33
2 11 29
2 8 10
8 2 8
17 18 5
18 17 5
11 8 4
17 7 4
7 17 4
8 11 3
1 2 2
2 17 2
8 25 2
2 27 2
2 3 1
3 2 1
2 1 1
1 4 1
4 1 1
1 5 1
5 6 1
6 2 1
2 6 1
6 7 1
7 8 1
8 9 1
9 8 1
8 10 1
10 1 1
11 12 1
12 11 1
11 13 1
13 8 1
8 14 1
14 2 1
2 15 1
15 11 1
11 15 1
15 2 1
8 7 1
7 16 1
16 17 1
17 8 1
8 19 1
19 11 1
8 20 1
20 11 1
2 21 1
21 2 1
2 22 1
22 11 1
17 2 1
17 11 1
2 23 1
23 2 1
2 24 1
24 2 1
25 2 1
25 8 1
8 26 1
26 11 1
27 2 1
27 28 1
28 8 1
8 21 1
21 11 1
2 29 1
29 8 1
2 30 1
30 11 1
11 18 1
