3 7 27
2 3 25
7 3 25
1 2 23
3 2 22
2 1 22
16 1 11
7 2 10
1 16 10
19 3 10
3 19 10
6 3 9
2 7 9
1 3 8
3 1 7
3 6 7
7 1 7
8 3 6
6 2 6
1 19 6
19 21 6
1 7 5
3 8 4
2 6 4
7 6 3
8 1 3
3 10 3
2 8 3
19 1 3
21 22 3
6 1 2
6 7 2
10 8 2
1 10 2
10 2 2
3 13 2
8 6 2
13 1 2
1 13 2
16 3 2
22 1 2
21 19 2
11 8 2
1 11 2
21 3 2
3 4 1
4 2 1
3 5 1
5 6 1
1 6 1
6 4 1
4 3 1
3 9 1
9 6 1
7 11 1
11 10 1
3 12 1
12 7 1
13 14 1
14 6 1
6 8 1
13 6 1
3 15 1
15 16 1
1 17 1
17 16 1
1 18 1
18 16 1
16 8 1
3 11 1
11 3 1
10 3 1
3 16 1
1 20 1
20 1 1
22 10 1
10 7 1
10 1 1
2 11 1
8 11 1
11 1 1
11 7 1
8 19 1
3 21 1
