2 3 34
3 2 34
6 3 21
3 6 20
3 1 16
1 3 15
8 3 15
3 8 13
13 1 12
1 13 11
6 2 10
2 6 9
1 2 8
2 1 8
10 3 7
3 10 7
11 6 6
12 3 6
3 13 6
3 12 5
13 3 5
3 11 5
3 21 5
21 3 5
9 2 4
6 11 4
1 5 3
5 1 3
2 9 3
11 3 3
1 4 2
1 11 2
3 18 2
18 3 2
1 6 2
11 8 2
20 3 2
23 1 2
4 1 1
4 3 1
3 4 1
4 5 1
5 6 1
6 1 1
5 2 1
2 7 1
7 8 1
8 9 1
2 10 1
6 12 1
6 13 1
1 14 1
14 1 1
2 15 1
15 2 1
3 15 1
15 16 1
16 3 1
3 17 1
17 3 1
10 8 1
1 19 1
19 2 1
3 5 1
11 1 1
8 11 1
8 1 1
11 2 1
2 11 1
2 8 1
13 6 1
3 20 1
6 20 1
6 21 1
21 6 1
2 22 1
22 23 1
1 24 1
24 23 1
1 23 1
