45 11 49
11 45 45
10 11 18
11 10 15
11 76 12
76 11 12
7 4 11
11 18 10
18 11 10
4 7 9
11 12 9
12 11 7
36 11 4
61 11 4
31 80 4
11 32 3
32 11 3
11 36 3
11 61 3
80 11 3
80 31 3
45 29 3
29 45 3
12 10 2
11 27 2
27 28 2
29 11 2
11 31 2
45 46 2
11 50 2
45 10 2
10 45 2
45 61 2
74 45 2
1 2 1
2 3 1
3 4 1
4 5 1
5 6 1
6 7 1
4 8 1
8 7 1
4 9 1
9 4 1
4 10 1
10 12 1
12 13 1
13 11 1
11 14 1
14 15 1
15 10 1
11 16 1
16 17 1
17 11 1
18 19 1
19 20 1
20 18 1
18 21 1
21 18 1
10 22 1
22 23 1
23 22 1
22 11 1
11 24 1
24 11 1
11 25 1
25 11 1
11 26 1
26 11 1
28 26 1
26 28 1
28 24 1
24 28 1
28 11 1
28 27 1
27 29 1
11 29 1
29 30 1
30 29 1
31 11 1
11 19 1
19 11 1
11 33 1
33 34 1
34 35 1
35 36 1
36 37 1
37 36 1
11 38 1
38 39 1
39 40 1
40 41 1
41 42 1
42 43 1
43 44 1
44 10 1
11 37 1
37 45 1
46 11 1
11 47 1
47 45 1
11 48 1
48 11 1
45 49 1
49 45 1
45 21 1
21 45 1
50 11 1
11 51 1
51 52 1
52 53 1
53 54 1
54 11 1
11 55 1
55 11 1
11 56 1
56 11 1
11 7 1
7 11 1
11 57 1
57 58 1
58 59 1
59 11 1
11 60 1
60 11 1
61 45 1
11 62 1
62 63 1
63 64 1
64 45 1
11 65 1
65 45 1
10 66 1
66 10 1
50 45 1
45 67 1
67 68 1
68 69 1
69 70 1
70 71 1
71 72 1
72 73 1
73 74 1
45 74 1
45 75 1
75 45 1
76 77 1
77 76 1
11 78 1
78 76 1
76 79 1
79 18 1
18 46 1
46 10 1
11 46 1
46 80 1
11 80 1
11 81 1
81 11 1
11 82 1
82 45 1
45 83 1
83 84 1
84 85 1
85 56 1
56 86 1
86 87 1
87 11 1
11 88 1
88 11 1
11 89 1
89 45 1
45 90 1
90 91 1
91 45 1
45 92 1
92 11 1
46 45 1
45 93 1
93 11 1
11 94 1
94 95 1
95 96 1
96 97 1
97 98 1
98 99 1
99 100 1
100 101 1
101 11 1
11 102 1
102 45 1
11 103 1
103 11 1
10 104 1
104 10 1
11 105 1
105 106 1
106 11 1
11 39 1
39 11 1
11 107 1
107 39 1
39 108 1
108 109 1
109 110 1
110 45 1
10 111 1
111 112 1
112 113 1
113 11 1
11 114 1
114 115 1
115 116 1
116 117 1
117 118 1
118 119 1
