11 10 9
10 11 8
20 11 7
11 20 6
20 22 3
18 20 3
11 17 2
15 17 2
8 20 2
11 29 2
29 11 2
1 2 1
2 1 1
1 3 1
3 4 1
4 5 1
5 6 1
6 7 1
7 8 1
8 9 1
9 10 1
10 12 1
12 10 1
10 13 1
13 11 1
10 14 1
14 11 1
11 15 1
15 16 1
16 17 1
17 18 1
18 19 1
19 20 1
11 21 1
21 11 1
17 11 1
22 11 1
11 23 1
23 22 1
22 24 1
24 25 1
25 26 1
26 25 1
25 24 1
24 26 1
26 24 1
24 8 1
8 25 1
25 21 1
21 15 1
17 27 1
27 15 1
15 18 1
18 22 1
22 28 1
28 15 1
15 29 1
29 20 1
20 15 1
17 28 1
28 30 1
30 11 1
17 15 1
15 31 1
31 11 1
10 20 1
20 32 1
32 10 1
10 33 1
33 8 1
8 34 1
34 20 1
22 20 1
20 17 1
17 10 1
10 18 1
20 35 1
35 18 1
20 10 1
10 22 1
22 10 1
11 36 1
36 8 1
11 18 1
22 25 1
25 11 1
20 37 1
37 8 1
11 38 1
38 13 1
13 39 1
39 1 1
