6 17 33
17 6 28
15 17 27
17 15 23
21 19 22
43 54 22
43 51 19
54 43 19
51 43 17
19 21 14
8 15 14
8 6 13
6 8 13
6 43 12
15 8 11
10 44 11
21 63 11
44 10 10
19 63 10
43 6 10
63 21 9
63 19 9
28 6 8
43 21 8
6 28 7
15 43 7
53 43 7
77 19 7
19 77 7
31 10 6
10 31 6
6 21 6
10 6 6
21 43 6
6 48 6
48 6 6
50 6 6
6 50 6
43 53 6
10 43 6
6 10 6
7 8 5
8 19 5
19 10 5
19 6 5
50 43 5
43 10 5
8 59 5
6 51 5
51 6 5
43 62 5
10 54 5
54 10 5
8 7 4
18 19 4
21 6 4
46 8 4
21 57 4
57 21 4
62 43 4
43 8 4
19 8 4
15 95 4
95 15 4
10 11 3
19 18 3
20 21 3
22 20 3
35 17 3
17 19 3
10 15 3
17 10 3
43 15 3
43 17 3
8 46 3
43 50 3
17 52 3
15 10 3
59 8 3
10 17 3
15 21 3
8 43 3
51 54 3
54 21 3
4 6 2
8 10 2
11 10 2
15 13 2
13 15 2
21 22 2
20 22 2
21 24 2
24 21 2
28 29 2
29 28 2
17 35 2
8 36 2
36 8 2
10 38 2
38 10 2
39 10 2
10 39 2
17 40 2
15 6 2
8 21 2
21 8 2
21 15 2
21 17 2
19 15 2
8 45 2
45 8 2
52 15 2
10 8 2
21 61 2
61 21 2
63 64 2
64 21 2
17 21 2
17 68 2
68 17 2
19 43 2
80 44 2
8 82 2
82 8 2
21 51 2
6 15 2
51 94 2
94 43 2
21 10 2
1 2 1
2 3 1
3 4 1
4 5 1
5 4 1
6 4 1
6 7 1
7 9 1
9 8 1
11 12 1
12 13 1
13 14 1
14 15 1
15 16 1
16 15 1
15 18 1
19 20 1
21 23 1
23 22 1
22 21 1
21 25 1
25 24 1
24 25 1
25 20 1
20 26 1
26 21 1
21 20 1
22 27 1
27 21 1
21 28 1
6 30 1
30 31 1
31 3 1
3 6 1
28 32 1
32 33 1
33 34 1
34 35 1
17 7 1
19 37 1
37 19 1
10 28 1
19 39 1
39 15 1
40 15 1
6 19 1
19 41 1
41 8 1
19 42 1
42 10 1
44 19 1
43 44 1
17 43 1
17 8 1
8 47 1
47 10 1
44 6 1
6 46 1
8 48 1
48 49 1
49 50 1
50 51 1
51 50 1
50 15 1
52 40 1
40 6 1
54 55 1
55 10 1
10 56 1
56 21 1
21 58 1
58 8 1
59 6 1
6 60 1
60 21 1
62 19 1
63 6 1
44 15 1
19 65 1
65 17 1
6 66 1
66 6 1
17 67 1
67 66 1
66 17 1
40 17 1
6 68 1
68 44 1
44 69 1
69 10 1
10 70 1
70 8 1
59 71 1
71 8 1
15 72 1
72 15 1
15 73 1
73 15 1
15 55 1
55 6 1
17 74 1
74 17 1
17 75 1
75 15 1
17 5 1
5 76 1
76 15 1
15 77 1
43 78 1
78 3 1
3 50 1
43 19 1
77 79 1
79 80 1
10 19 1
8 81 1
81 8 1
8 83 1
83 17 1
17 72 1
72 84 1
84 21 1
51 21 1
51 85 1
85 43 1
54 86 1
86 64 1
64 51 1
21 86 1
86 43 1
54 6 1
54 80 1
44 87 1
87 21 1
43 88 1
88 53 1
43 89 1
89 43 1
43 90 1
90 43 1
43 91 1
91 43 1
54 15 1
15 19 1
17 92 1
92 6 1
6 54 1
63 43 1
17 93 1
93 50 1
94 51 1
43 60 1
60 94 1
51 86 1
86 51 1
10 21 1
10 63 1
63 54 1
15 96 1
96 17 1
15 97 1
97 54 1
10 51 1
54 19 1
43 98 1
98 19 1
19 99 1
99 63 1
10 100 1
100 6 1
17 101 1
101 6 1
