3 4 37
4 3 34
4 27 17
27 4 17
37 4 13
22 50 12
50 37 11
4 37 10
27 50 10
50 22 10
4 50 10
50 27 9
50 4 8
37 50 8
101 50 8
50 101 7
21 22 6
99 4 6
16 4 6
6 7 5
4 7 5
4 99 5
7 6 4
17 16 4
19 3 4
22 21 4
4 16 4
4 6 3
16 17 3
3 19 3
4 5 2
6 3 2
7 4 2
7 16 2
16 3 2
19 4 2
4 19 2
30 32 2
38 37 2
4 38 2
37 38 2
38 39 2
38 4 2
39 4 2
43 44 2
28 37 2
22 57 2
57 4 2
65 19 2
19 65 2
72 50 2
50 72 2
50 3 2
3 38 2
39 57 2
76 57 2
57 76 2
4 22 2
3 16 2
22 4 2
50 7 2
1 2 1
2 3 1
5 6 1
6 8 1
8 7 1
7 9 1
9 10 1
10 3 1
3 11 1
11 12 1
12 4 1
3 7 1
7 13 1
13 6 1
7 3 1
3 6 1
6 14 1
14 10 1
10 7 1
7 15 1
15 6 1
16 18 1
18 17 1
3 20 1
20 21 1
22 23 1
23 24 1
24 21 1
22 11 1
11 21 1
21 25 1
25 21 1
21 3 1
4 26 1
26 27 1
27 28 1
28 4 1
4 29 1
29 4 1
4 30 1
30 31 1
31 30 1
32 30 1
32 20 1
20 33 1
33 34 1
34 10 1
10 35 1
35 10 1
10 4 1
4 36 1
36 37 1
37 12 1
12 38 1
4 39 1
39 38 1
38 40 1
40 4 1
39 37 1
37 39 1
4 41 1
41 3 1
3 42 1
42 43 1
44 43 1
44 45 1
45 44 1
44 46 1
46 47 1
47 43 1
43 47 1
47 28 1
37 28 1
37 47 1
47 48 1
48 47 1
47 49 1
49 50 1
4 51 1
51 46 1
46 4 1
4 47 1
47 50 1
50 52 1
52 50 1
37 53 1
53 37 1
4 54 1
54 37 1
37 55 1
55 47 1
47 56 1
56 47 1
47 37 1
50 28 1
28 27 1
50 19 1
19 22 1
57 22 1
4 58 1
58 30 1
30 3 1
4 59 1
59 4 1
4 60 1
60 61 1
61 62 1
62 4 1
5 19 1
3 63 1
63 64 1
64 4 1
3 22 1
22 65 1
65 16 1
16 66 1
66 67 1
67 6 1
4 68 1
68 69 1
69 4 1
7 70 1
70 71 1
71 27 1
27 72 1
72 73 1
73 22 1
38 3 1
4 74 1
74 75 1
75 74 1
74 11 1
11 39 1
57 39 1
39 76 1
76 36 1
36 39 1
57 11 1
11 76 1
76 3 1
3 39 1
39 77 1
77 57 1
57 20 1
20 78 1
78 57 1
57 28 1
28 57 1
57 79 1
79 80 1
80 81 1
81 82 1
82 3 1
3 83 1
83 84 1
84 85 1
85 11 1
11 86 1
86 87 1
87 88 1
88 89 1
89 90 1
90 87 1
87 27 1
50 91 1
91 50 1
50 92 1
92 93 1
93 50 1
50 29 1
29 27 1
27 94 1
94 50 1
50 95 1
95 50 1
27 96 1
96 97 1
97 22 1
50 73 1
73 50 1
50 98 1
98 50 1
22 99 1
7 50 1
50 100 1
100 101 1
101 102 1
102 50 1
101 103 1
103 101 1
50 104 1
104 105 1
105 106 1
106 101 1
16 107 1
107 16 1
6 4 1
6 108 1
108 16 1
16 50 1
50 57 1
37 76 1
76 22 1
50 109 1
109 50 1
7 37 1
4 110 1
110 22 1
22 7 1
6 111 1
111 112 1
112 113 1
113 50 1
7 114 1
114 115 1
115 114 1
114 50 1
50 116 1
116 114 1
114 116 1
116 117 1
117 4 1
4 20 1
20 4 1
37 3 1
16 37 1
37 16 1
3 118 1
118 3 1
3 99 1
99 119 1
119 105 1
