7 6 44
6 7 38
6 20 19
20 6 18
7 20 12
20 4 11
20 7 11
22 18 11
18 22 11
18 20 9
6 8 8
8 6 8
6 15 8
20 18 8
6 4 7
4 7 7
4 20 7
15 20 7
15 7 5
13 18 5
7 15 4
18 13 4
20 19 4
9 20 4
15 9 4
20 13 4
7 19 4
20 24 4
24 20 4
5 6 3
7 9 3
13 4 3
13 7 3
15 6 3
18 4 3
4 9 3
4 6 3
19 7 3
20 15 3
20 9 3
19 20 3
4 24 3
9 15 3
2 3 2
6 5 2
9 7 2
6 12 2
4 13 2
12 14 2
14 6 2
12 16 2
16 14 2
14 12 2
4 19 2
20 21 2
21 20 2
6 19 2
22 4 2
23 4 2
23 24 2
24 23 2
7 4 2
7 13 2
19 9 2
4 15 2
20 29 2
29 6 2
7 24 2
1 2 1
3 2 1
3 4 1
4 5 1
7 10 1
10 7 1
7 11 1
11 7 1
12 6 1
7 12 1
6 14 1
14 7 1
15 16 1
16 15 1
15 12 1
12 13 1
9 17 1
17 15 1
15 18 1
9 18 1
19 18 1
18 7 1
19 6 1
15 4 1
20 10 1
10 20 1
4 22 1
4 18 1
19 23 1
23 7 1
9 23 1
4 23 1
24 25 1
25 4 1
4 26 1
26 20 1
7 27 1
27 7 1
4 28 1
28 6 1
7 29 1
29 7 1
4 30 1
30 7 1
9 19 1
7 22 1
22 6 1
19 15 1
9 22 1
22 7 1
29 15 1
15 29 1
6 29 1
29 20 1
13 20 1
24 19 1
19 12 1
12 20 1
6 13 1
19 4 1
24 7 1
13 31 1
31 7 1
13 32 1
32 33 1
33 19 1
19 22 1
24 6 1
24 4 1
9 34 1
34 6 1
7 35 1
35 13 1
13 36 1
36 2 1
2 37 1
37 4 1
