6 5 45
5 6 42
5 19 20
19 5 19
19 6 13
6 19 13
21 17 12
17 21 11
17 19 9
5 7 8
7 5 8
5 14 8
19 17 8
14 19 8
14 6 5
17 12 5
12 17 5
19 18 5
19 8 5
12 6 4
6 14 4
19 14 4
8 19 4
14 8 4
19 12 4
6 18 4
19 23 4
23 19 4
4 5 3
6 8 3
14 5 3
18 6 3
18 19 3
22 23 3
8 14 3
2 3 2
5 4 2
8 6 2
5 11 2
5 12 2
11 13 2
13 5 2
11 15 2
15 13 2
13 11 2
19 20 2
20 19 2
5 18 2
23 22 2
6 12 2
18 8 2
21 5 2
19 28 2
28 5 2
6 23 2
1 2 1
3 2 1
3 4 1
6 9 1
9 6 1
6 10 1
10 6 1
11 5 1
6 11 1
5 13 1
13 6 1
14 15 1
15 14 1
14 11 1
11 12 1
8 16 1
16 14 1
14 17 1
17 8 1
8 17 1
17 18 1
18 17 1
17 6 1
18 5 1
19 9 1
9 19 1
5 21 1
18 22 1
22 6 1
8 22 1
23 24 1
24 25 1
25 19 1
6 26 1
26 6 1
19 27 1
27 5 1
6 28 1
28 6 1
12 29 1
29 6 1
8 18 1
6 21 1
18 14 1
8 21 1
21 6 1
28 14 1
14 28 1
5 28 1
28 19 1
12 19 1
23 18 1
18 11 1
11 19 1
12 23 1
18 23 1
23 6 1
12 30 1
30 6 1
12 31 1
31 32 1
32 18 1
18 21 1
23 5 1
23 14 1
8 33 1
33 5 1
6 34 1
34 12 1
12 35 1
35 2 1
2 36 1
36 19 1
