3 14 34
14 3 34
10 3 18
10 11 17
3 10 17
11 10 16
3 8 10
8 3 9
11 14 8
14 11 8
11 13 7
13 14 7
14 13 7
2 3 6
3 11 6
3 2 5
10 12 5
13 3 4
3 16 4
12 13 4
13 11 4
11 12 3
12 11 3
15 14 3
16 3 3
13 12 3
14 20 3
20 3 3
12 10 3
12 3 3
24 3 3
11 25 3
3 4 2
9 10 2
8 14 2
14 10 2
17 13 2
14 18 2
10 14 2
3 15 2
3 12 2
23 11 2
14 24 2
25 11 2
26 3 2
1 2 1
4 5 1
5 3 1
4 6 1
6 4 1
4 3 1
3 7 1
7 2 1
2 8 1
8 9 1
10 9 1
13 8 1
12 14 1
14 12 1
14 15 1
3 17 1
18 14 1
18 12 1
12 17 1
16 14 1
11 19 1
19 10 1
11 15 1
3 20 1
20 14 1
15 10 1
11 21 1
21 11 1
13 22 1
22 3 1
3 22 1
22 10 1
11 23 1
10 23 1
11 24 1
3 24 1
24 14 1
25 10 1
11 26 1
26 11 1
11 3 1
13 26 1
3 26 1
3 13 1
14 8 1
