2 26 60
26 2 60
29 2 20
2 29 18
2 62 18
62 2 16
35 2 15
2 32 14
2 35 12
32 2 11
2 61 11
61 2 11
2 52 10
19 2 8
2 30 7
30 2 7
52 2 7
5 3 6
3 5 6
18 19 6
18 17 6
17 19 6
32 35 6
2 19 6
5 2 6
2 5 6
68 2 6
17 18 5
19 18 5
2 33 5
2 57 5
57 2 5
19 17 4
19 3 4
3 19 4
2 27 4
34 2 4
36 2 4
33 2 4
62 68 4
2 25 3
2 18 3
18 2 3
2 17 3
29 26 3
34 33 3
2 34 3
34 35 3
2 68 3
2 76 3
3 4 2
3 16 2
2 23 2
23 2 2
25 2 2
27 2 2
2 28 2
28 2 2
17 2 2
17 29 2
29 18 2
33 34 2
35 34 2
26 36 2
2 36 2
37 2 2
35 32 2
35 19 2
33 32 2
26 29 2
26 55 2
2 56 2
64 2 2
75 2 2
85 2 2
1 2 1
2 3 1
4 3 1
4 5 1
5 6 1
6 7 1
7 8 1
8 9 1
9 3 1
3 10 1
10 11 1
11 12 1
12 3 1
3 13 1
13 3 1
3 14 1
14 15 1
15 14 1
14 3 1
16 3 1
16 5 1
5 17 1
2 20 1
20 2 1
2 21 1
21 2 1
2 22 1
22 2 1
2 24 1
24 2 1
25 27 1
27 28 1
28 17 1
19 29 1
30 31 1
31 2 1
32 29 1
27 37 1
2 37 1
35 38 1
38 39 1
39 38 1
38 35 1
19 34 1
2 40 1
40 2 1
2 41 1
41 26 1
26 5 1
5 30 1
2 42 1
42 2 1
2 43 1
43 2 1
2 44 1
44 45 1
45 2 1
2 46 1
46 47 1
47 2 1
2 47 1
47 48 1
48 2 1
27 34 1
34 46 1
46 29 1
2 49 1
49 36 1
36 50 1
50 51 1
51 2 1
52 36 1
36 29 1
29 52 1
52 29 1
52 50 1
50 2 1
52 53 1
53 2 1
2 53 1
53 52 1
2 54 1
54 36 1
36 26 1
52 34 1
55 2 1
56 2 1
56 57 1
57 58 1
58 59 1
59 58 1
58 26 1
2 60 1
60 26 1
2 58 1
58 2 1
55 62 1
2 63 1
63 64 1
2 65 1
65 62 1
62 66 1
66 62 1
62 67 1
67 62 1
68 69 1
69 62 1
2 70 1
70 35 1
35 70 1
70 64 1
62 71 1
71 26 1
26 34 1
34 72 1
72 68 1
68 61 1
61 26 1
2 73 1
73 26 1
26 73 1
73 2 1
29 34 1
34 32 1
32 34 1
35 74 1
74 62 1
62 35 1
19 35 1
35 75 1
2 75 1
76 2 1
76 26 1
26 77 1
77 2 1
76 72 1
72 71 1
71 72 1
72 78 1
78 79 1
79 72 1
72 55 1
55 80 1
80 2 1
2 80 1
80 81 1
81 17 1
17 82 1
82 83 1
83 84 1
84 85 1
2 85 1
2 86 1
86 2 1
2 87 1
87 2 1
26 88 1
