27 35 24
35 27 23
46 27 8
35 106 7
106 35 6
27 49 5
49 27 5
27 46 4
35 46 4
62 27 4
30 28 3
25 28 3
35 49 3
46 62 3
27 63 3
48 106 3
113 27 3
27 113 3
98 48 3
35 134 3
28 25 2
27 30 2
28 31 2
27 25 2
27 44 2
25 46 2
48 49 2
49 46 2
48 46 2
35 60 2
49 62 2
49 35 2
26 35 2
81 35 2
27 85 2
27 98 2
35 26 2
101 27 2
48 27 2
121 98 2
27 125 2
134 35 2
60 100 2
100 35 2
170 74 2
35 98 2
98 46 2
46 35 2
200 46 2
46 200 2
1 2 1
2 3 1
3 4 1
4 5 1
5 6 1
6 7 1
7 8 1
8 9 1
9 4 1
4 10 1
10 11 1
11 12 1
12 13 1
13 14 1
14 15 1
15 16 1
16 17 1
17 18 1
18 19 1
19 20 1
20 21 1
21 22 1
22 23 1
23 24 1
24 25 1
25 26 1
26 27 1
27 28 1
25 29 1
29 27 1
31 32 1
32 33 1
33 34 1
34 28 1
28 27 1
25 27 1
35 36 1
36 27 1
31 27 1
27 37 1
37 25 1
28 38 1
38 39 1
39 30 1
28 40 1
40 27 1
25 41 1
41 42 1
42 27 1
27 43 1
43 27 1
44 26 1
26 45 1
45 43 1
43 25 1
46 28 1
28 47 1
47 48 1
46 49 1
49 50 1
50 28 1
28 51 1
51 52 1
52 48 1
46 25 1
27 48 1
49 53 1
53 27 1
27 54 1
54 49 1
27 29 1
29 55 1
55 46 1
46 56 1
56 49 1
49 57 1
57 58 1
58 46 1
46 30 1
30 35 1
35 59 1
59 35 1
60 61 1
61 27 1
62 63 1
63 64 1
64 35 1
49 28 1
25 31 1
31 37 1
37 65 1
65 66 1
66 25 1
28 67 1
67 68 1
68 69 1
69 70 1
70 65 1
65 25 1
28 30 1
30 25 1
25 30 1
30 71 1
71 72 1
72 25 1
25 73 1
73 74 1
74 75 1
75 76 1
76 77 1
77 27 1
27 26 1
27 78 1
78 46 1
46 79 1
79 60 1
60 80 1
80 81 1
46 82 1
82 83 1
83 84 1
84 62 1
85 58 1
58 62 1
62 86 1
86 87 1
87 62 1
27 88 1
88 89 1
89 90 1
90 34 1
34 85 1
85 27 1
49 91 1
91 92 1
92 46 1
62 87 1
87 93 1
93 46 1
46 94 1
94 49 1
27 95 1
95 96 1
96 49 1
49 97 1
97 27 1
98 50 1
50 46 1
62 35 1
27 58 1
58 99 1
99 46 1
62 100 1
100 27 1
27 62 1
85 101 1
27 101 1
63 62 1
62 102 1
102 27 1
27 103 1
103 35 1
35 58 1
58 35 1
60 104 1
104 60 1
60 105 1
105 106 1
106 107 1
107 35 1
106 108 1
108 35 1
106 48 1
106 109 1
109 48 1
35 110 1
110 111 1
111 27 1
27 106 1
35 112 1
112 106 1
106 85 1
85 113 1
27 114 1
114 113 1
113 115 1
115 27 1
113 102 1
102 35 1
27 116 1
116 77 1
77 117 1
117 35 1
26 98 1
48 98 1
106 98 1
106 118 1
118 119 1
119 106 1
106 120 1
120 48 1
48 121 1
98 122 1
122 123 1
123 81 1
81 124 1
124 35 1
125 126 1
126 27 1
125 27 1
63 127 1
127 128 1
128 73 1
73 129 1
129 130 1
130 27 1
27 131 1
131 60 1
60 132 1
132 27 1
27 115 1
115 133 1
133 134 1
134 27 1
134 135 1
135 136 1
136 137 1
137 135 1
135 138 1
138 139 1
139 136 1
136 27 1
27 135 1
135 140 1
140 141 1
141 142 1
142 35 1
35 143 1
143 35 1
27 144 1
144 39 1
39 145 1
145 27 1
27 146 1
146 27 1
63 147 1
147 106 1
106 121 1
98 148 1
148 149 1
149 150 1
150 27 1
27 87 1
87 49 1
27 151 1
151 152 1
152 35 1
35 153 1
153 49 1
27 154 1
154 49 1
49 155 1
155 133 1
133 101 1
101 60 1
27 156 1
156 35 1
35 157 1
157 119 1
119 158 1
158 159 1
159 158 1
158 160 1
160 161 1
161 27 1
27 158 1
158 162 1
162 158 1
158 163 1
163 164 1
164 165 1
165 166 1
166 167 1
167 162 1
162 27 1
27 162 1
162 74 1
74 168 1
168 35 1
35 169 1
169 170 1
74 170 1
74 171 1
171 30 1
30 27 1
27 172 1
172 173 1
173 27 1
35 145 1
145 96 1
96 129 1
129 27 1
35 93 1
93 35 1
35 74 1
74 27 1
27 174 1
174 74 1
74 175 1
175 46 1
46 48 1
35 176 1
176 177 1
177 35 1
35 178 1
178 27 1
27 179 1
179 27 1
27 180 1
180 27 1
27 181 1
181 106 1
106 182 1
182 106 1
106 183 1
183 98 1
98 35 1
35 184 1
184 35 1
98 106 1
106 185 1
185 46 1
46 186 1
186 35 1
46 98 1
46 187 1
187 50 1
50 48 1
46 188 1
188 27 1
46 189 1
189 46 1
46 190 1
190 191 1
191 192 1
192 191 1
191 60 1
60 193 1
193 100 1
44 49 1
49 194 1
194 27 1
35 195 1
195 196 1
196 197 1
197 106 1
106 74 1
74 35 1
35 198 1
198 46 1
27 199 1
199 27 1
27 81 1
98 200 1
200 201 1
201 200 1
200 202 1
202 203 1
203 204 1
204 46 1
35 205 1
205 197 1
197 123 1
123 206 1
206 60 1
100 160 1
160 207 1
207 140 1
