17 4 63
4 17 62
17 5 19
5 17 19
4 5 18
5 4 18
4 14 17
39 17 17
6 4 15
5 39 13
17 39 13
14 4 11
4 6 10
17 6 10
6 17 9
17 38 8
39 5 8
17 65 8
65 17 7
38 39 5
14 50 5
50 14 5
18 17 4
17 19 4
17 23 4
14 5 4
38 17 4
17 14 4
4 7 3
7 4 3
21 17 3
23 4 3
19 17 3
7 17 3
5 38 3
4 58 3
17 85 3
3 4 2
9 10 2
10 9 2
17 18 2
17 21 2
21 22 2
24 17 2
38 5 2
39 40 2
40 17 2
39 42 2
39 43 2
4 38 2
46 39 2
4 47 2
47 4 2
52 5 2
5 6 2
14 57 2
58 4 2
60 4 2
68 17 2
17 68 2
71 17 2
17 58 2
72 14 2
4 51 2
51 4 2
81 5 2
5 14 2
17 87 2
14 94 2
94 58 2
1 2 1
2 3 1
4 3 1
4 8 1
8 9 1
9 11 1
11 10 1
10 12 1
12 9 1
9 13 1
13 14 1
14 15 1
15 16 1
16 17 1
19 18 1
17 20 1
20 17 1
22 21 1
23 24 1
17 25 1
25 21 1
23 21 1
17 26 1
26 27 1
27 28 1
28 17 1
22 17 1
17 29 1
29 4 1
17 30 1
30 17 1
17 31 1
31 32 1
32 17 1
17 33 1
33 6 1
17 34 1
34 17 1
17 35 1
35 30 1
30 4 1
4 23 1
4 24 1
14 36 1
36 7 1
7 19 1
19 7 1
4 19 1
19 4 1
17 37 1
37 17 1
38 41 1
41 17 1
42 39 1
43 17 1
4 44 1
44 6 1
42 17 1
17 45 1
45 17 1
43 5 1
4 40 1
40 46 1
4 48 1
48 49 1
49 4 1
4 39 1
39 4 1
50 51 1
51 50 1
5 52 1
5 53 1
53 5 1
4 54 1
54 50 1
50 55 1
55 40 1
40 39 1
39 46 1
46 56 1
56 52 1
38 4 1
57 14 1
57 58 1
58 57 1
57 17 1
38 14 1
4 59 1
59 4 1
14 39 1
38 40 1
17 46 1
40 5 1
5 60 1
60 50 1
50 60 1
60 61 1
61 62 1
62 60 1
14 63 1
63 60 1
4 21 1
21 7 1
7 25 1
25 7 1
7 21 1
21 64 1
64 5 1
39 38 1
65 4 1
17 66 1
66 17 1
4 67 1
67 4 1
14 6 1
4 68 1
17 69 1
69 17 1
17 70 1
70 71 1
17 71 1
58 72 1
14 72 1
14 73 1
73 74 1
74 5 1
6 18 1
17 75 1
75 76 1
76 77 1
77 4 1
14 76 1
76 17 1
50 17 1
4 78 1
78 4 1
58 17 1
17 79 1
79 50 1
50 80 1
80 17 1
14 17 1
39 75 1
75 59 1
59 81 1
17 82 1
82 17 1
39 83 1
83 84 1
84 17 1
85 5 1
85 17 1
85 38 1
58 5 1
17 86 1
86 17 1
87 17 1
17 88 1
88 89 1
89 50 1
39 90 1
90 17 1
17 91 1
91 17 1
14 81 1
5 92 1
92 17 1
87 5 1
5 93 1
93 51 1
51 94 1
94 17 1
14 95 1
95 17 1
58 14 1
5 96 1
96 59 1
59 14 1
58 97 1
97 5 1
5 7 1
17 7 1
