11 10 63
10 11 57
7 11 56
11 7 51
5 12 40
12 5 39
22 10 34
10 22 33
11 9 30
9 11 29
24 11 29
11 24 27
5 14 24
14 5 24
10 7 16
7 10 15
17 11 14
28 5 12
7 9 11
11 17 10
10 21 10
11 26 10
5 11 10
5 28 10
29 11 10
38 7 10
11 5 9
26 11 9
11 29 8
7 38 8
7 5 7
5 10 7
6 7 6
9 7 6
10 5 6
16 17 6
21 10 6
23 7 6
7 23 6
10 24 6
9 10 5
21 22 5
5 7 5
10 9 4
11 16 4
17 16 4
11 38 4
7 6 3
23 11 3
24 10 3
9 28 3
28 11 3
5 9 3
2 3 2
4 5 2
7 8 2
8 7 2
13 7 2
14 15 2
15 7 2
16 11 2
17 18 2
18 17 2
11 19 2
19 20 2
22 21 2
23 8 2
8 23 2
24 7 2
12 25 2
25 12 2
5 22 2
22 26 2
26 27 2
27 5 2
11 6 2
7 28 2
9 29 2
29 24 2
24 30 2
30 7 2
9 5 2
11 23 2
6 5 2
5 31 2
31 4 2
22 17 2
17 32 2
32 17 2
33 34 2
34 5 2
10 35 2
35 10 2
10 29 2
11 36 2
7 37 2
37 7 2
38 11 2
1 2 1
3 2 1
3 4 1
5 6 1
5 13 1
7 13 1
7 14 1
20 11 1
20 10 1
22 23 1
12 14 1
26 10 1
9 24 1
10 6 1
4 6 1
21 7 1
11 22 1
11 33 1
5 33 1
36 11 1
36 7 1
5 2 1
2 39 1
39 2 1
