4 9 76
9 4 69
20 4 20
4 20 18
14 9 14
9 14 13
4 13 11
14 4 10
50 9 10
26 4 9
4 26 9
4 14 9
9 50 9
16 14 8
9 20 8
20 9 8
13 4 8
4 50 8
9 16 6
50 4 6
8 9 5
13 9 5
20 13 5
9 23 5
9 26 5
28 4 5
50 20 5
16 9 4
14 16 4
13 20 4
7 8 3
9 10 3
10 9 3
9 19 3
5 13 3
4 28 3
13 31 3
31 13 3
14 19 3
40 4 3
4 16 3
26 9 3
48 14 3
20 50 3
57 20 3
14 15 2
9 18 2
19 9 2
20 11 2
11 20 2
15 14 2
28 9 2
30 13 2
32 13 2
13 14 2
9 13 2
9 34 2
34 28 2
28 35 2
35 28 2
4 36 2
23 5 2
37 38 2
19 14 2
4 40 2
26 2 2
13 46 2
46 4 2
14 48 2
49 20 2
51 4 2
32 50 2
20 57 2
58 20 2
9 42 2
9 8 2
1 2 1
2 3 1
3 4 1
4 5 1
5 6 1
6 7 1
9 11 1
11 9 1
9 12 1
12 13 1
15 16 1
14 17 1
17 14 1
18 9 1
9 5 1
13 21 1
21 22 1
22 9 1
23 9 1
9 24 1
24 9 1
14 25 1
25 5 1
13 5 1
26 15 1
14 27 1
27 4 1
14 28 1
9 29 1
29 13 1
13 30 1
13 32 1
19 16 1
19 4 1
4 31 1
31 4 1
9 33 1
33 9 1
36 4 1
36 28 1
5 37 1
38 39 1
39 9 1
9 37 1
38 32 1
23 17 1
17 23 1
23 20 1
20 38 1
38 4 1
26 13 1
13 40 1
16 26 1
26 14 1
14 26 1
26 20 1
4 41 1
41 4 1
16 15 1
15 26 1
9 15 1
15 17 1
17 9 1
2 26 1
2 42 1
42 26 1
26 43 1
43 4 1
23 4 1
14 44 1
44 30 1
13 45 1
45 9 1
4 46 1
46 47 1
47 9 1
16 4 1
4 7 1
20 14 1
9 48 1
9 49 1
20 49 1
50 14 1
14 50 1
50 19 1
19 51 1
9 52 1
52 9 1
4 51 1
9 51 1
51 9 1
50 53 1
53 9 1
16 50 1
9 54 1
54 9 1
9 55 1
55 32 1
50 32 1
20 56 1
56 50 1
18 15 1
15 9 1
14 12 1
12 18 1
18 16 1
20 23 1
5 9 1
23 57 1
9 58 1
13 58 1
20 58 1
58 9 1
9 59 1
59 4 1
42 4 1
4 60 1
60 4 1
9 61 1
61 9 1
9 62 1
62 63 1
63 9 1
9 64 1
64 9 1
9 7 1
42 9 1
9 65 1
65 9 1
9 66 1
66 4 1
9 67 1
