15 16 24
16 15 23
16 29 17
30 15 17
29 16 16
15 30 15
17 15 14
7 16 14
16 7 13
15 17 12
7 11 12
11 7 10
11 23 10
24 7 10
7 24 9
15 11 8
11 34 8
34 11 8
15 18 7
11 28 7
28 11 7
19 35 7
27 16 6
35 19 6
18 15 5
11 16 5
17 11 5
24 11 5
16 27 5
16 11 5
29 15 5
23 11 5
11 36 5
36 11 5
11 6 4
6 11 4
11 21 4
11 15 4
11 17 4
11 24 4
26 24 4
15 29 4
31 19 4
19 31 4
11 9 3
12 11 3
11 22 3
22 11 3
16 17 3
24 26 3
17 35 3
35 17 3
6 7 2
7 8 2
8 7 2
9 11 2
9 12 2
12 7 2
21 7 2
21 11 2
7 15 2
15 7 2
23 15 2
11 12 2
17 31 2
31 17 2
11 33 2
33 11 2
23 12 2
1 2 1
2 3 1
3 4 1
4 5 1
5 2 1
2 6 1
7 6 1
7 9 1
9 7 1
7 10 1
10 9 1
7 13 1
13 14 1
14 15 1
17 16 1
18 19 1
19 15 1
18 17 1
11 20 1
20 11 1
23 17 1
11 19 1
19 17 1
24 25 1
25 24 1
7 26 1
24 27 1
11 29 1
29 11 1
16 30 1
15 22 1
22 7 1
17 32 1
32 31 1
31 32 1
32 19 1
19 11 1
17 19 1
35 30 1
15 24 1
11 37 1
37 24 1
12 23 1
23 16 1
7 38 1
38 39 1
39 16 1
11 39 1
39 11 1
11 40 1
40 11 1
16 41 1
41 42 1
