7 2 81
2 7 79
6 7 29
2 4 26
2 28 26
4 2 25
7 6 25
28 2 25
2 6 21
6 2 19
13 6 17
6 13 16
7 4 14
2 23 14
23 2 14
13 7 13
10 7 12
7 10 11
7 13 10
6 10 9
13 30 9
8 7 8
10 6 8
4 7 8
30 13 8
7 8 7
7 18 7
18 7 6
18 13 6
9 2 5
4 13 5
13 18 5
4 9 4
6 8 4
4 5 3
2 9 3
2 13 3
20 21 3
21 20 3
9 4 2
8 6 2
4 11 2
11 4 2
13 4 2
13 2 2
1 2 1
2 3 1
3 2 1
5 2 1
5 4 1
5 6 1
4 12 1
12 4 1
7 14 1
14 2 1
4 15 1
15 4 1
7 16 1
16 17 1
17 16 1
16 7 1
7 19 1
19 6 1
8 20 1
20 6 1
2 22 1
22 6 1
2 24 1
24 25 1
25 26 1
26 7 1
2 18 1
18 27 1
27 2 1
28 7 1
13 29 1
29 13 1
30 31 1
31 7 1
7 32 1
32 2 1
2 33 1
