6 1 56
1 6 55
5 1 17
1 5 16
1 7 9
7 1 8
1 37 7
29 30 6
17 1 6
37 1 6
1 54 6
3 1 5
1 17 5
54 1 5
1 3 4
1 25 4
25 6 4
30 29 4
1 29 4
30 1 4
23 6 3
29 1 3
1 30 3
35 36 3
36 35 3
1 12 3
12 1 3
47 48 3
37 6 3
5 6 2
1 15 2
15 1 2
17 20 2
6 23 2
25 1 2
6 25 2
27 1 2
17 40 2
40 17 2
36 1 2
48 47 2
6 51 2
1 2 1
2 3 1
3 4 1
4 3 1
3 5 1
5 3 1
7 8 1
8 1 1
1 8 1
8 9 1
9 1 1
1 10 1
10 1 1
1 11 1
11 12 1
12 5 1
6 13 1
13 1 1
1 14 1
14 1 1
1 16 1
16 17 1
17 18 1
18 17 1
17 19 1
19 17 1
20 17 1
20 21 1
21 3 1
3 6 1
6 22 1
22 6 1
1 23 1
1 24 1
24 6 1
6 15 1
6 26 1
26 17 1
17 15 1
15 5 1
5 27 1
1 27 1
1 28 1
28 5 1
6 29 1
30 31 1
31 1 1
6 7 1
1 4 1
4 17 1
17 7 1
7 32 1
32 7 1
7 6 1
6 33 1
33 6 1
6 34 1
34 6 1
6 35 1
36 7 1
7 37 1
37 17 1
17 38 1
38 39 1
39 17 1
15 41 1
41 1 1
1 36 1
7 36 1
1 42 1
42 36 1
35 43 1
43 44 1
44 45 1
45 41 1
41 46 1
46 44 1
44 47 1
48 49 1
49 50 1
50 5 1
6 37 1
51 37 1
51 1 1
1 52 1
52 1 1
6 53 1
53 1 1
54 55 1
55 1 1
1 56 1
56 57 1
57 1 1
1 58 1
58 1 1
1 59 1
59 1 1
