3 2 18
2 3 16
2 17 9
4 5 8
2 15 8
15 2 8
17 2 8
4 2 6
5 3 6
2 4 5
3 4 5
5 4 5
4 21 5
21 2 5
2 5 5
2 21 5
29 2 5
5 2 4
4 17 4
5 21 4
2 29 4
33 19 4
17 4 3
3 21 3
4 3 3
21 29 3
29 4 3
3 5 3
4 19 3
19 33 3
19 2 3
2 19 3
15 4 2
17 15 2
21 5 2
21 9 2
9 21 2
21 3 2
21 4 2
4 28 2
28 4 2
4 31 2
31 4 2
19 4 2
21 33 2
2 34 2
3 29 2
19 29 2
1 2 1
2 6 1
6 7 1
7 8 1
8 9 1
9 10 1
10 2 1
2 10 1
10 11 1
11 2 1
2 9 1
9 12 1
12 13 1
13 12 1
12 2 1
2 14 1
14 2 1
2 16 1
16 2 1
15 17 1
17 18 1
18 19 1
19 17 1
17 19 1
19 20 1
20 9 1
9 2 1
21 22 1
22 4 1
4 22 1
22 3 1
4 23 1
23 24 1
24 25 1
25 26 1
26 4 1
2 27 1
27 4 1
2 28 1
28 5 1
5 30 1
30 9 1
9 5 1
2 32 1
32 2 1
21 15 1
2 33 1
33 2 1
34 2 1
34 9 1
9 4 1
33 4 1
4 35 1
35 19 1
19 36 1
36 4 1
5 37 1
37 38 1
38 39 1
39 5 1
5 39 1
39 3 1
29 3 1
29 21 1
29 19 1
2 40 1
40 19 1
19 5 1
4 41 1
41 3 1
19 42 1
