5 9 8
9 5 7
22 5 7
22 25 6
5 22 6
25 22 5
22 31 4
22 9 3
31 22 3
5 7 2
7 5 2
5 23 2
9 25 2
9 22 2
33 34 2
35 31 2
31 35 2
25 9 2
31 34 2
34 31 2
5 25 2
25 5 2
46 47 2
47 46 2
5 50 2
9 50 2
50 5 2
1 2 1
2 3 1
3 4 1
4 5 1
5 6 1
6 5 1
5 8 1
8 9 1
5 10 1
10 11 1
11 12 1
12 13 1
13 14 1
14 15 1
15 16 1
16 17 1
17 18 1
18 19 1
19 20 1
20 21 1
21 20 1
20 22 1
23 5 1
5 24 1
24 5 1
25 26 1
26 25 1
25 27 1
27 22 1
22 28 1
28 5 1
25 29 1
29 26 1
26 13 1
13 5 1
5 30 1
30 22 1
31 32 1
32 22 1
25 33 1
34 35 1
35 33 1
34 36 1
36 34 1
34 37 1
37 25 1
5 31 1
31 20 1
20 31 1
31 25 1
25 38 1
38 31 1
31 39 1
39 22 1
22 40 1
40 41 1
41 25 1
22 42 1
42 43 1
43 22 1
22 44 1
44 22 1
22 45 1
45 25 1
25 31 1
31 9 1
5 46 1
47 22 1
25 47 1
46 48 1
48 5 1
5 49 1
49 5 1
9 47 1
47 5 1
50 51 1
51 9 1
23 47 1
47 50 1
50 52 1
52 5 1
5 20 1
20 25 1
9 20 1
20 5 1
5 53 1
53 54 1
54 5 1
50 22 1
22 55 1
55 22 1
9 56 1
