1 6 90
6 1 90
6 12 23
12 6 22
1 2 17
2 1 16
1 3 9
3 1 7
1 10 6
1 5 4
5 1 4
6 13 4
13 6 4
10 1 4
12 1 4
6 17 4
17 6 4
6 10 3
3 2 2
9 1 2
10 12 2
1 9 2
1 12 2
13 18 2
18 6 2
2 12 2
12 10 2
2 25 2
25 2 2
2 26 2
26 2 2
1 43 2
43 1 2
2 4 1
4 1 1
6 7 1
7 1 1
6 8 1
8 6 1
6 9 1
10 11 1
11 1 1
6 14 1
14 6 1
10 6 1
2 15 1
15 6 1
6 16 1
16 6 1
12 13 1
6 19 1
19 6 1
1 20 1
20 1 1
6 21 1
21 13 1
1 22 1
22 1 1
9 6 1
12 23 1
23 12 1
10 24 1
24 6 1
10 2 1
1 27 1
27 1 1
1 28 1
28 1 1
6 29 1
29 6 1
10 30 1
30 1 1
1 31 1
31 32 1
32 33 1
33 1 1
6 34 1
34 35 1
35 36 1
36 35 1
35 6 1
6 37 1
37 6 1
6 38 1
38 6 1
1 39 1
39 13 1
13 39 1
39 40 1
40 6 1
6 41 1
41 6 1
12 42 1
42 12 1
