6 21 35
21 6 35
6 24 26
24 6 26
13 6 19
6 13 18
13 15 17
15 13 17
16 6 16
6 16 14
7 12 8
12 7 8
6 15 7
16 21 7
14 13 6
15 6 6
21 16 6
26 6 6
12 13 5
13 14 5
17 6 5
6 20 5
21 25 5
6 26 5
47 12 5
25 21 4
12 32 4
32 12 4
33 12 4
6 10 3
7 6 3
13 12 3
12 6 3
6 12 3
6 17 3
20 6 3
25 6 3
28 6 3
6 31 3
31 6 3
13 35 3
35 15 3
15 35 3
47 7 3
12 48 3
51 16 3
6 51 3
5 6 2
6 7 2
10 7 2
11 12 2
11 10 2
15 14 2
16 17 2
6 25 2
6 28 2
7 33 2
12 33 2
35 13 2
7 47 2
48 47 2
12 47 2
51 6 2
10 6 2
1 2 1
2 3 1
3 4 1
4 5 1
7 5 1
5 8 1
8 5 1
5 7 1
7 9 1
9 5 1
6 5 1
5 11 1
13 11 1
12 5 1
5 12 1
12 11 1
11 7 1
7 11 1
13 7 1
6 11 1
10 14 1
14 15 1
14 16 1
17 16 1
6 18 1
18 19 1
19 13 1
15 7 1
7 15 1
20 21 1
6 22 1
22 6 1
16 23 1
23 16 1
6 27 1
27 26 1
26 28 1
6 29 1
29 30 1
30 26 1
13 25 1
25 16 1
21 33 1
33 7 1
7 17 1
21 34 1
34 21 1
13 36 1
36 13 1
35 37 1
37 13 1
15 36 1
36 15 1
6 38 1
38 12 1
12 15 1
15 39 1
39 40 1
40 15 1
15 40 1
40 41 1
41 42 1
42 43 1
43 41 1
41 44 1
44 45 1
45 42 1
42 46 1
46 42 1
42 47 1
7 48 1
48 12 1
48 7 1
12 49 1
49 50 1
50 47 1
12 51 1
16 51 1
