15 16 44
16 15 41
13 15 23
15 13 20
21 15 16
15 21 15
10 15 13
15 11 13
15 10 12
24 15 11
11 15 11
15 24 10
10 11 9
11 10 9
15 39 6
9 10 4
30 15 4
41 15 4
10 9 3
15 30 3
33 13 3
13 33 3
39 40 3
39 15 3
15 41 3
9 7 2
7 9 2
10 12 2
12 10 2
14 15 2
15 14 2
17 15 2
15 22 2
22 15 2
9 28 2
28 9 2
9 29 2
30 10 2
15 38 2
38 15 2
40 39 2
40 15 2
39 38 2
11 42 2
1 2 1
2 3 1
3 4 1
4 5 1
5 4 1
4 6 1
6 7 1
7 8 1
8 9 1
12 11 1
11 12 1
10 13 1
13 14 1
14 13 1
16 17 1
17 18 1
18 19 1
19 17 1
15 17 1
17 20 1
20 17 1
10 23 1
23 10 1
15 25 1
25 24 1
15 26 1
26 15 1
15 27 1
27 16 1
16 13 1
15 9 1
29 9 1
29 30 1
15 31 1
31 13 1
13 16 1
15 32 1
32 15 1
16 33 1
33 15 1
15 34 1
34 30 1
10 30 1
10 35 1
35 10 1
16 36 1
36 37 1
37 15 1
40 38 1
38 40 1
38 41 1
42 11 1
42 15 1
11 13 1
16 43 1
43 16 1
16 10 1
10 44 1
44 10 1
10 21 1
15 40 1
38 21 1
21 30 1
30 45 1
