15 37 38
37 15 37
22 15 32
15 22 28
37 22 17
22 37 14
21 22 13
8 9 12
15 25 12
69 15 12
15 69 12
9 8 11
22 21 11
25 15 11
43 37 10
45 37 10
36 34 9
37 45 9
73 15 9
34 36 8
15 73 8
15 44 7
18 15 6
31 15 6
15 34 6
37 43 6
51 44 6
44 22 6
34 73 6
73 34 6
15 18 5
15 31 5
34 15 5
15 35 5
35 15 5
36 37 5
44 15 5
47 43 5
22 44 5
3 4 4
4 3 4
15 36 4
43 47 4
37 49 4
49 37 4
44 51 4
22 43 4
45 36 4
10 12 3
12 10 3
17 15 3
15 17 3
26 15 3
36 15 3
37 36 3
44 48 3
61 22 3
31 22 3
22 66 3
66 22 3
22 4 3
4 22 3
15 79 3
10 8 2
19 4 2
24 25 2
25 26 2
34 31 2
37 40 2
15 41 2
44 37 2
34 45 2
45 44 2
30 44 2
44 47 2
44 31 2
31 34 2
44 30 2
54 44 2
44 54 2
54 22 2
55 44 2
56 37 2
37 56 2
21 15 2
43 22 2
22 65 2
37 31 2
22 31 2
65 22 2
15 65 2
71 45 2
35 34 2
36 45 2
37 65 2
65 31 2
79 15 2
1 2 1
2 3 1
3 5 1
5 3 1
3 6 1
6 7 1
7 8 1
9 10 1
8 10 1
10 9 1
9 11 1
11 10 1
9 13 1
13 9 1
8 14 1
14 15 1
15 16 1
16 17 1
17 18 1
15 19 1
4 19 1
4 20 1
20 21 1
15 23 1
23 24 1
25 24 1
15 27 1
27 28 1
28 25 1
15 26 1
15 29 1
29 15 1
25 30 1
30 15 1
31 32 1
32 31 1
31 33 1
33 31 1
37 38 1
38 21 1
22 39 1
39 21 1
22 36 1
40 15 1
41 15 1
41 42 1
42 43 1
37 44 1
44 36 1
37 34 1
44 43 1
40 37 1
36 46 1
46 37 1
37 30 1
30 43 1
43 44 1
48 44 1
48 30 1
48 47 1
43 30 1
47 44 1
47 37 1
49 44 1
44 50 1
50 51 1
34 51 1
30 45 1
45 46 1
46 52 1
52 15 1
37 53 1
53 22 1
22 49 1
22 54 1
22 47 1
47 55 1
44 55 1
31 44 1
22 56 1
56 57 1
57 37 1
22 58 1
58 22 1
37 21 1
22 59 1
59 22 1
37 60 1
60 61 1
15 62 1
62 63 1
63 22 1
44 45 1
37 64 1
64 37 1
65 37 1
31 65 1
65 15 1
65 54 1
22 46 1
46 30 1
30 37 1
30 67 1
67 37 1
37 68 1
68 37 1
37 69 1
69 44 1
44 70 1
70 22 1
22 71 1
44 71 1
45 71 1
71 44 1
44 11 1
11 44 1
22 72 1
72 44 1
44 35 1
34 35 1
73 74 1
74 73 1
73 45 1
31 37 1
37 61 1
31 68 1
68 22 1
15 43 1
43 65 1
15 75 1
75 76 1
76 15 1
15 77 1
77 15 1
37 78 1
78 15 1
36 79 1
79 73 1
79 80 1
80 61 1
65 44 1
22 73 1
34 22 1
22 34 1
34 65 1
65 73 1
73 37 1
37 81 1
81 37 1
