8 6 73
6 8 71
33 34 14
34 33 13
26 8 12
8 26 12
40 6 11
6 40 11
8 33 9
8 9 8
9 8 8
33 8 7
2 10 4
10 2 4
26 27 4
8 27 3
27 8 3
34 6 3
8 40 3
40 8 3
8 46 3
57 58 3
8 59 3
59 8 3
1 2 2
2 3 2
6 7 2
8 2 2
8 18 2
27 26 2
6 38 2
6 34 2
33 6 2
8 34 2
2 41 2
41 2 2
46 8 2
6 47 2
58 57 2
3 2 1
2 1 1
3 4 1
4 5 1
5 6 1
7 6 1
2 11 1
11 12 1
12 13 1
13 8 1
8 14 1
14 15 1
15 16 1
16 8 1
8 17 1
17 8 1
18 2 1
2 19 1
19 20 1
20 21 1
21 6 1
6 22 1
22 8 1
18 23 1
23 24 1
24 18 1
18 25 1
25 8 1
8 25 1
25 26 1
27 28 1
28 29 1
29 30 1
30 29 1
29 8 1
8 31 1
31 8 1
27 32 1
32 8 1
34 26 1
26 31 1
31 26 1
26 35 1
35 33 1
34 36 1
36 13 1
13 37 1
37 8 1
8 36 1
36 38 1
38 26 1
33 23 1
23 8 1
7 8 1
38 2 1
2 39 1
39 8 1
6 39 1
39 6 1
38 8 1
33 2 1
2 33 1
6 42 1
42 33 1
6 43 1
43 44 1
44 45 1
45 8 1
46 6 1
47 6 1
47 8 1
8 48 1
48 8 1
6 49 1
49 50 1
50 8 1
6 51 1
51 8 1
8 52 1
52 11 1
11 53 1
53 2 1
2 6 1
2 54 1
54 8 1
6 55 1
55 6 1
8 56 1
56 8 1
8 7 1
7 57 1
58 8 1
