3 4 18
4 3 16
5 4 14
4 5 13
22 4 10
4 22 10
14 31 10
22 3 9
3 22 8
31 14 8
11 4 7
4 36 7
4 11 5
31 4 5
36 4 4
38 19 4
17 4 3
28 27 3
4 31 3
19 38 3
4 12 2
15 14 2
14 13 2
4 17 2
20 19 2
3 25 2
25 3 2
27 28 2
27 29 2
29 30 2
4 35 2
25 22 2
1 2 1
2 3 1
4 6 1
6 2 1
2 7 1
7 4 1
3 7 1
7 8 1
8 9 1
9 8 1
8 10 1
10 11 1
12 4 1
12 13 1
13 14 1
14 15 1
13 15 1
14 4 1
4 16 1
16 4 1
4 18 1
18 19 1
19 18 1
18 20 1
19 20 1
19 21 1
21 22 1
4 14 1
13 23 1
23 15 1
15 13 1
13 19 1
19 4 1
3 24 1
24 3 1
3 26 1
26 22 1
3 27 1
29 28 1
30 29 1
30 14 1
31 29 1
29 3 1
22 14 1
31 32 1
32 33 1
33 26 1
26 34 1
34 26 1
26 32 1
32 26 1
26 5 1
35 4 1
35 5 1
5 17 1
22 29 1
29 26 1
26 25 1
25 31 1
31 25 1
22 25 1
4 30 1
30 4 1
36 22 1
4 29 1
29 4 1
36 3 1
4 37 1
37 11 1
11 31 1
4 38 1
19 28 1
28 31 1
3 11 1
11 3 1
22 39 1
39 3 1
36 11 1
