16 3 7
3 16 5
16 17 4
3 17 4
12 16 3
17 3 3
12 3 3
17 16 3
3 12 2
26 3 2
16 12 2
3 35 2
35 3 2
28 25 2
1 2 1
2 3 1
3 4 1
4 5 1
5 6 1
6 7 1
7 8 1
8 3 1
3 9 1
9 10 1
10 11 1
11 12 1
12 10 1
10 13 1
13 14 1
14 3 1
3 15 1
15 12 1
3 18 1
18 12 1
16 19 1
19 17 1
17 12 1
12 20 1
20 16 1
3 21 1
21 12 1
3 22 1
22 23 1
23 3 1
3 24 1
24 25 1
25 17 1
17 26 1
17 18 1
18 17 1
17 27 1
27 28 1
28 29 1
29 28 1
28 30 1
30 3 1
3 28 1
28 3 1
3 31 1
31 16 1
17 32 1
32 3 1
17 33 1
33 34 1
34 17 1
3 36 1
36 3 1
3 33 1
33 26 1
3 26 1
26 37 1
37 38 1
38 39 1
39 16 1
12 40 1
40 25 1
25 40 1
40 41 1
41 42 1
42 12 1
12 43 1
43 6 1
6 44 1
44 45 1
45 46 1
46 16 1
16 47 1
47 25 1
25 48 1
48 49 1
49 25 1
25 28 1
28 50 1
50 51 1
51 52 1
52 28 1
28 45 1
45 53 1
53 54 1
54 28 1
25 55 1
55 56 1
56 28 1
