15 18 22
18 15 19
9 7 15
7 9 12
21 15 9
15 16 8
7 15 8
15 7 8
7 13 7
16 15 7
15 21 7
15 13 7
13 7 6
9 13 6
14 15 6
13 9 5
15 14 5
5 2 5
2 5 5
13 15 5
6 7 4
7 6 4
17 15 4
15 17 4
20 15 4
11 9 3
7 12 3
15 20 3
18 21 3
24 25 3
5 15 3
13 5 3
6 9 2
12 7 2
12 11 2
16 18 2
18 16 2
19 15 2
15 19 2
19 20 2
20 18 2
25 24 2
1 2 1
2 1 1
1 3 1
3 4 1
4 5 1
5 6 1
7 8 1
8 9 1
9 10 1
10 9 1
7 11 1
11 7 1
9 11 1
12 9 1
12 6 1
13 12 1
9 6 1
6 12 1
9 12 1
7 14 1
16 17 1
17 18 1
18 19 1
18 20 1
16 19 1
19 16 1
16 21 1
21 16 1
21 19 1
18 5 1
5 8 1
8 22 1
22 23 1
23 24 1
24 22 1
22 24 1
24 23 1
23 5 1
5 24 1
25 7 1
15 5 1
