47 7 80
7 47 69
13 7 49
7 13 48
10 7 34
8 7 21
7 8 20
7 126 19
47 13 18
13 47 17
126 7 17
45 47 16
16 7 15
7 26 14
7 16 14
7 45 14
26 7 12
21 13 11
13 23 11
74 7 11
33 16 10
7 74 10
16 10 9
7 33 9
13 10 8
23 47 8
79 74 8
23 7 7
47 10 7
47 23 7
7 79 7
8 10 6
7 21 6
23 13 6
23 26 6
7 23 6
7 40 6
58 7 6
13 45 6
74 10 6
7 61 5
7 58 5
66 7 5
10 13 5
13 118 5
7 10 4
7 44 4
56 8 4
47 61 4
61 7 4
44 47 4
64 13 4
69 13 4
24 13 3
26 23 3
40 47 3
47 8 3
7 56 3
61 47 3
13 12 3
12 13 3
13 64 3
13 58 3
6 7 3
13 69 3
85 86 3
86 87 3
58 10 3
58 26 3
64 7 3
126 10 3
58 132 3
132 58 3
4 6 2
6 4 2
12 7 2
7 22 2
23 24 2
23 8 2
8 23 2
26 10 2
32 7 2
35 16 2
16 33 2
35 7 2
33 40 2
40 8 2
8 16 2
7 48 2
47 45 2
49 47 2
10 8 2
57 58 2
40 7 2
45 13 2
63 61 2
7 65 2
10 66 2
7 66 2
47 21 2
74 47 2
47 74 2
74 79 2
80 8 2
7 53 2
87 85 2
93 7 2
7 32 2
26 74 2
26 99 2
84 101 2
74 58 2
10 58 2
10 64 2
47 52 2
58 115 2
47 69 2
58 13 2
128 126 2
118 13 2
23 21 2
23 58 2
136 58 2
127 58 2
58 6 2
1 2 1
2 3 1
3 4 1
4 5 1
5 4 1
4 7 1
8 9 1
9 8 1
10 11 1
11 12 1
13 14 1
14 15 1
15 16 1
10 17 1
17 14 1
14 18 1
18 13 1
7 19 1
19 7 1
7 20 1
20 13 1
22 10 1
21 22 1
22 13 1
23 25 1
25 23 1
8 26 1
26 8 1
7 27 1
27 23 1
10 23 1
10 28 1
28 7 1
7 29 1
29 26 1
26 30 1
30 23 1
23 11 1
11 31 1
31 7 1
16 32 1
7 34 1
34 16 1
16 35 1
10 35 1
16 36 1
36 35 1
7 37 1
37 33 1
7 35 1
16 38 1
38 7 1
33 7 1
7 39 1
39 7 1
8 33 1
16 8 1
8 39 1
39 8 1
16 41 1
41 42 1
42 8 1
8 42 1
42 7 1
40 16 1
33 43 1
43 10 1
44 45 1
45 10 1
45 32 1
32 46 1
46 47 1
48 47 1
7 49 1
47 49 1
45 40 1
10 50 1
50 47 1
7 51 1
51 47 1
7 52 1
52 7 1
8 47 1
8 53 1
53 54 1
54 55 1
55 8 1
8 56 1
8 57 1
58 57 1
57 10 1
47 40 1
40 6 1
6 57 1
57 59 1
59 57 1
58 8 1
8 60 1
60 47 1
61 45 1
45 62 1
62 58 1
61 58 1
58 61 1
61 63 1
63 58 1
64 12 1
13 44 1
47 64 1
45 64 1
64 40 1
40 64 1
47 63 1
61 13 1
58 23 1
24 64 1
58 45 1
45 6 1
7 46 1
46 7 1
65 46 1
46 66 1
66 67 1
67 10 1
66 32 1
32 66 1
65 66 1
66 53 1
53 66 1
7 55 1
55 66 1
66 68 1
68 66 1
66 69 1
69 70 1
70 69 1
45 71 1
71 26 1
26 47 1
7 72 1
72 47 1
47 33 1
16 47 1
47 16 1
7 73 1
73 16 1
16 45 1
74 16 1
16 74 1
7 75 1
75 74 1
74 76 1
76 74 1
74 45 1
45 77 1
77 74 1
10 74 1
7 78 1
78 74 1
79 7 1
74 80 1
7 80 1
7 81 1
81 7 1
7 82 1
82 47 1
53 47 1
47 83 1
83 7 1
7 84 1
84 85 1
86 88 1
88 89 1
89 87 1
87 7 1
7 86 1
86 90 1
90 86 1
86 10 1
10 40 1
40 91 1
91 87 1
87 47 1
47 89 1
89 86 1
87 84 1
84 86 1
86 92 1
92 7 1
47 93 1
93 94 1
94 7 1
7 95 1
95 7 1
40 80 1
80 40 1
8 93 1
32 96 1
96 7 1
7 93 1
7 97 1
97 7 1
32 58 1
10 93 1
93 58 1
26 28 1
28 98 1
98 99 1
99 26 1
26 58 1
26 84 1
84 10 1
7 100 1
100 53 1
53 58 1
58 84 1
84 7 1
7 63 1
99 84 1
101 7 1
7 88 1
88 84 1
101 74 1
99 102 1
102 103 1
103 7 1
74 77 1
77 7 1
74 104 1
104 7 1
58 105 1
105 13 1
7 106 1
106 13 1
13 107 1
107 7 1
7 64 1
64 21 1
13 21 1
23 64 1
64 23 1
13 108 1
108 21 1
21 109 1
109 7 1
13 32 1
32 47 1
52 44 1
44 7 1
7 110 1
110 7 1
45 111 1
111 7 1
10 6 1
6 47 1
22 7 1
45 7 1
53 7 1
7 112 1
112 40 1
40 61 1
61 113 1
113 10 1
61 114 1
114 32 1
32 115 1
115 7 1
115 13 1
13 116 1
116 58 1
13 18 1
18 117 1
117 10 1
10 117 1
117 13 1
118 119 1
119 58 1
58 120 1
120 45 1
52 69 1
69 47 1
69 120 1
120 52 1
52 58 1
58 47 1
47 121 1
121 122 1
122 120 1
120 47 1
69 123 1
123 47 1
47 124 1
124 10 1
40 58 1
47 125 1
125 47 1
47 58 1
58 16 1
48 7 1
7 127 1
127 126 1
126 58 1
58 126 1
126 32 1
7 128 1
13 129 1
129 13 1
118 10 1
118 24 1
10 21 1
7 6 1
7 130 1
130 7 1
47 6 1
13 24 1
7 131 1
131 132 1
132 13 1
13 131 1
131 23 1
13 133 1
133 134 1
134 13 1
10 128 1
126 23 1
115 135 1
135 136 1
132 127 1
6 132 1
132 137 1
137 136 1
136 132 1
58 127 1
58 138 1
138 6 1
6 136 1
58 40 1
40 126 1
126 139 1
139 23 1
21 23 1
23 10 1
58 139 1
139 58 1
6 127 1
127 140 1
140 127 1
127 128 1
128 13 1
10 14 1
14 10 1
