4 3 50
3 4 46
3 10 31
10 3 30
27 51 24
51 27 21
27 54 14
54 27 12
3 22 10
3 24 10
3 39 10
39 3 10
24 3 9
27 3 9
22 3 8
31 3 7
3 27 7
3 26 6
3 31 6
14 3 5
26 3 5
27 49 5
53 27 5
22 4 4
3 37 4
10 27 4
27 59 4
49 27 4
3 13 3
13 3 3
3 14 3
3 15 3
23 22 3
26 14 3
37 3 3
3 44 3
51 52 3
52 27 3
27 53 3
60 27 3
5 3 2
3 6 2
8 3 2
10 11 2
15 3 2
3 17 2
17 3 2
18 19 2
19 18 2
22 23 2
14 27 2
3 30 2
30 3 2
44 3 2
27 10 2
51 53 2
55 27 2
27 55 2
27 56 2
56 27 2
59 27 2
3 54 2
1 2 1
2 3 1
4 5 1
6 7 1
7 3 1
3 7 1
7 8 1
3 9 1
9 10 1
11 10 1
11 3 1
3 11 1
11 8 1
3 12 1
12 3 1
15 16 1
16 3 1
3 18 1
19 3 1
3 19 1
18 4 1
3 20 1
20 4 1
3 21 1
21 3 1
6 3 1
4 23 1
24 25 1
25 26 1
14 26 1
27 23 1
23 5 1
5 6 1
6 28 1
28 29 1
29 27 1
3 32 1
32 3 1
3 33 1
33 32 1
32 14 1
10 34 1
34 10 1
4 22 1
4 35 1
35 36 1
36 3 1
37 38 1
38 31 1
3 40 1
40 3 1
3 41 1
41 40 1
40 42 1
42 25 1
25 3 1
3 43 1
43 4 1
44 4 1
4 45 1
45 46 1
46 4 1
4 47 1
47 4 1
10 48 1
48 10 1
17 27 1
27 17 1
49 50 1
50 51 1
52 51 1
27 52 1
54 3 1
3 5 1
27 22 1
22 55 1
55 10 1
10 54 1
54 56 1
56 54 1
54 10 1
54 57 1
57 58 1
58 57 1
57 27 1
49 60 1
54 60 1
27 14 1
59 61 1
61 62 1
62 60 1
59 49 1
54 49 1
49 59 1
59 54 1
