6 3 12
10 3 12
3 6 10
3 10 9
20 10 6
10 11 5
3 8 5
11 10 4
10 20 4
20 3 4
3 20 4
9 8 3
5 16 3
16 5 3
14 3 3
6 20 3
3 5 2
5 3 2
8 9 2
13 6 2
3 14 2
5 17 2
3 11 2
8 20 2
20 11 2
11 20 2
1 2 1
2 3 1
3 4 1
4 3 1
3 7 1
7 8 1
8 10 1
3 12 1
12 3 1
8 6 1
3 13 1
14 8 1
8 14 1
14 15 1
15 5 1
17 5 1
17 6 1
3 18 1
18 6 1
6 19 1
19 3 1
11 8 1
8 11 1
11 5 1
11 16 1
16 3 1
11 21 1
21 20 1
8 5 1
5 9 1
20 22 1
22 3 1
3 23 1
23 24 1
24 25 1
25 10 1
5 10 1
3 26 1
26 3 1
8 13 1
6 14 1
20 27 1
27 6 1
20 6 1
20 14 1
8 3 1
10 12 1
12 6 1
20 16 1
16 20 1
6 28 1
28 3 1
3 29 1
29 30 1
30 31 1
