5 7 5
21 5 4
7 5 3
33 34 3
5 36 3
36 5 3
5 15 2
15 5 2
8 5 2
5 33 2
36 33 2
38 33 2
1 2 1
2 3 1
3 4 1
4 5 1
5 6 1
6 5 1
7 3 1
3 8 1
8 7 1
5 9 1
9 5 1
7 10 1
10 11 1
11 12 1
12 7 1
5 13 1
13 14 1
14 5 1
5 16 1
16 5 1
5 17 1
17 5 1
5 18 1
18 8 1
5 3 1
3 5 1
5 19 1
19 5 1
7 20 1
20 13 1
13 21 1
5 22 1
22 23 1
23 24 1
24 21 1
21 25 1
25 5 1
5 26 1
26 7 1
7 21 1
5 27 1
27 5 1
5 21 1
5 28 1
28 5 1
7 29 1
29 5 1
5 8 1
5 30 1
30 31 1
31 21 1
5 32 1
32 5 1
34 35 1
35 36 1
33 36 1
33 37 1
37 33 1
34 33 1
34 38 1
33 38 1
33 39 1
39 33 1
33 40 1
40 33 1
33 5 1
33 7 1
7 41 1
41 5 1
5 42 1
