3 2 38
2 3 37
6 9 28
9 6 26
2 4 22
4 3 22
3 4 21
4 2 20
4 5 20
5 4 19
24 11 18
29 9 17
11 24 17
13 11 16
11 13 16
9 29 16
13 12 14
12 11 13
22 11 13
11 12 12
6 29 12
35 2 12
29 6 11
11 22 11
2 35 11
12 13 10
36 11 10
11 36 9
1 11 8
11 1 8
8 6 7
3 35 7
24 38 7
1 13 6
22 13 6
24 1 6
23 14 6
13 24 6
38 24 6
43 35 6
45 44 6
44 45 6
13 1 5
1 23 5
1 24 5
24 13 5
6 8 4
20 23 4
11 20 4
20 13 4
14 23 4
13 22 4
37 36 4
35 43 4
35 3 4
35 4 4
1 2 3
6 7 3
7 8 3
14 15 3
16 14 3
18 17 3
23 24 3
23 1 3
24 23 3
24 22 3
11 37 3
35 44 3
35 45 3
45 35 3
2 1 2
11 14 2
15 14 2
14 16 2
20 21 2
21 20 2
24 20 2
23 20 2
27 8 2
8 7 2
7 9 2
13 20 2
20 12 2
9 11 2
6 28 2
11 30 2
30 11 2
12 1 2
29 1 2
1 22 2
33 1 2
11 23 2
22 24 2
5 3 2
36 22 2
37 11 2
11 38 2
12 24 2
36 37 2
44 35 2
4 35 2
3 43 2
43 3 2
29 11 2
11 29 2
38 11 2
2 5 1
4 6 1
9 8 1
8 10 1
10 8 1
8 11 1
15 16 1
14 17 1
17 18 1
17 19 1
19 18 1
17 14 1
14 20 1
20 22 1
22 20 1
23 13 1
12 25 1
25 8 1
9 26 1
26 27 1
9 27 1
8 9 1
9 7 1
9 12 1
20 11 1
11 9 1
13 6 1
7 6 1
28 6 1
28 9 1
9 4 1
4 13 1
1 29 1
1 4 1
4 9 1
22 1 1
23 31 1
31 23 1
23 22 1
13 32 1
32 1 1
11 33 1
1 33 1
23 11 1
23 32 1
32 24 1
22 18 1
18 1 1
1 32 1
32 13 1
11 34 1
34 11 1
14 24 1
14 3 1
35 13 1
22 36 1
22 37 1
38 32 1
32 38 1
38 12 1
13 39 1
39 12 1
24 40 1
40 18 1
17 22 1
22 41 1
41 22 1
22 38 1
38 22 1
14 6 1
9 36 1
36 42 1
42 35 1
44 43 1
5 35 1
35 11 1
24 29 1
12 22 1
13 38 1
24 9 1
11 46 1
46 11 1
12 47 1
47 24 1
24 48 1
48 11 1
11 48 1
48 13 1
38 13 1
12 6 1
9 24 1
13 48 1
48 24 1
6 43 1
43 49 1
49 2 1
2 29 1
29 43 1
3 49 1
49 3 1
35 24 1
1 20 1
20 24 1
20 29 1
29 3 1
3 24 1
24 3 1
35 20 1
13 9 1
9 35 1
3 1 1
1 3 1
3 5 1
