12 11 27
11 12 26
40 16 18
16 40 17
11 7 16
7 11 15
3 16 13
16 18 12
16 3 12
18 16 11
40 31 7
31 40 7
18 31 6
31 18 6
11 14 4
12 29 4
29 12 4
14 15 3
15 11 3
23 35 3
35 23 3
11 38 3
38 11 3
11 4 3
4 11 3
10 11 2
7 13 2
14 11 2
11 16 2
23 24 2
27 28 2
30 31 2
31 30 2
23 11 2
1 2 1
2 1 1
1 3 1
3 4 1
4 1 1
1 5 1
5 6 1
6 7 1
7 8 1
8 9 1
9 10 1
11 10 1
13 7 1
13 11 1
11 15 1
15 14 1
16 17 1
17 16 1
16 19 1
19 3 1
18 20 1
20 21 1
21 22 1
22 23 1
24 23 1
24 25 1
25 23 1
23 26 1
26 27 1
28 26 1
26 28 1
28 27 1
28 12 1
16 30 1
30 23 1
23 32 1
32 23 1
23 33 1
33 23 1
23 34 1
34 23 1
23 36 1
36 23 1
11 37 1
37 11 1
11 23 1
11 39 1
39 18 1
18 40 1
40 41 1
41 40 1
40 42 1
42 40 1
16 41 1
41 43 1
43 3 1
3 43 1
43 12 1
12 4 1
4 12 1
12 44 1
44 11 1
