18 7 62
7 18 56
5 7 30
7 5 30
5 10 28
10 5 20
24 18 20
18 24 19
40 5 15
11 10 14
5 40 13
13 5 12
5 13 12
10 11 11
11 5 9
22 18 9
35 5 9
4 10 8
10 7 8
18 22 8
32 27 8
27 32 8
5 35 8
10 4 7
20 11 7
20 5 7
35 10 7
4 5 6
5 4 6
7 3 6
20 4 6
5 11 6
10 35 6
10 3 5
7 10 5
4 20 5
11 7 5
5 20 5
11 20 5
7 11 5
10 40 5
5 18 4
10 20 4
21 22 4
13 7 4
22 32 4
32 33 4
15 5 3
14 5 3
3 10 3
4 11 3
7 4 3
22 21 3
26 22 3
22 26 3
27 22 3
22 27 3
25 22 3
3 5 3
7 13 3
3 18 3
38 3 3
40 10 3
24 22 3
3 7 2
11 12 2
12 11 2
3 13 2
13 14 2
5 14 2
18 15 2
5 3 2
11 4 2
4 7 2
3 21 2
27 3 2
7 24 2
32 22 2
33 32 2
33 22 2
22 7 2
7 40 2
22 24 2
40 3 2
1 2 1
2 3 1
3 4 1
4 6 1
6 3 1
7 8 1
8 9 1
9 4 1
3 11 1
11 3 1
14 13 1
14 15 1
15 13 1
13 15 1
14 16 1
16 17 1
17 14 1
5 15 1
18 5 1
15 18 1
18 14 1
3 19 1
19 7 1
7 20 1
3 20 1
22 23 1
23 18 1
24 25 1
25 26 1
26 27 1
22 25 1
25 27 1
3 22 1
3 25 1
18 13 1
13 3 1
7 28 1
28 29 1
29 28 1
28 30 1
30 3 1
3 31 1
31 30 1
30 10 1
3 30 1
30 11 1
4 3 1
32 25 1
22 33 1
33 25 1
22 34 1
34 32 1
27 33 1
33 27 1
7 35 1
35 20 1
20 35 1
3 35 1
35 11 1
11 35 1
7 36 1
36 3 1
3 37 1
37 11 1
5 38 1
3 38 1
38 11 1
10 36 1
36 5 1
10 18 1
18 39 1
39 24 1
40 7 1
40 20 1
20 40 1
40 11 1
11 40 1
20 10 1
5 41 1
41 7 1
3 32 1
32 7 1
5 42 1
42 5 1
11 43 1
43 5 1
3 40 1
5 44 1
44 11 1
10 45 1
45 46 1
46 11 1
11 38 1
7 22 1
18 47 1
47 10 1
10 48 1
48 3 1
3 47 1
47 38 1
10 49 1
49 3 1
3 50 1
50 18 1
7 21 1
21 51 1
51 24 1
24 3 1
21 3 1
