3 22 38
22 3 38
22 21 14
5 3 13
3 5 12
21 22 12
21 3 6
3 16 4
3 21 4
3 35 4
5 37 4
3 6 3
16 3 3
3 27 3
27 3 3
32 22 3
35 3 3
37 5 3
10 3 2
20 3 2
22 32 2
1 2 1
2 3 1
3 4 1
4 3 1
6 7 1
7 8 1
8 3 1
6 9 1
9 10 1
3 10 1
6 5 1
5 11 1
11 5 1
5 12 1
12 5 1
3 13 1
13 14 1
14 3 1
3 15 1
15 3 1
16 17 1
17 3 1
16 13 1
13 3 1
3 18 1
18 3 1
3 19 1
19 20 1
3 20 1
22 13 1
13 22 1
22 23 1
23 22 1
3 24 1
24 25 1
25 22 1
22 26 1
26 22 1
3 28 1
28 22 1
22 29 1
29 30 1
30 21 1
21 31 1
31 22 1
3 32 1
22 16 1
3 33 1
33 34 1
34 3 1
35 36 1
36 5 1
5 36 1
36 37 1
37 38 1
38 5 1
37 3 1
3 39 1
39 3 1
3 40 1
40 3 1
3 41 1
41 3 1
3 42 1
42 3 1
3 43 1
43 44 1
44 3 1
3 45 1
45 3 1
3 46 1
46 3 1
3 47 1
47 48 1
