19 9 35
9 19 35
18 19 30
19 18 30
8 7 15
7 8 14
19 7 11
8 9 10
13 14 10
18 21 10
7 19 10
9 8 9
14 13 9
7 13 8
14 7 8
21 18 8
7 9 7
32 7 7
13 32 7
9 7 6
7 14 6
18 20 6
7 32 6
32 13 6
35 14 6
37 19 6
19 37 6
20 18 5
26 18 5
28 29 5
29 9 5
14 35 5
9 13 5
13 7 5
9 29 4
29 28 4
21 35 4
35 26 4
40 14 4
21 14 4
13 9 4
18 26 4
7 3 3
3 7 3
10 8 3
26 21 3
20 19 3
9 28 3
28 9 3
9 31 3
35 21 3
26 36 3
14 40 3
17 9 3
9 17 3
8 10 2
19 20 2
18 22 2
22 18 2
18 24 2
24 18 2
21 26 2
36 14 2
26 35 2
36 26 2
13 35 2
35 13 2
14 39 2
39 14 2
14 26 2
14 21 2
13 21 2
1 2 1
2 3 1
3 1 1
1 4 1
4 5 1
5 6 1
6 7 1
7 11 1
11 7 1
9 10 1
7 10 1
9 12 1
12 8 1
10 9 1
14 15 1
15 16 1
16 14 1
14 17 1
17 18 1
18 23 1
23 18 1
18 25 1
25 26 1
18 27 1
27 18 1
20 9 1
28 30 1
30 28 1
31 32 1
7 33 1
33 34 1
34 16 1
16 7 1
7 20 1
32 35 1
35 36 1
14 31 1
31 37 1
19 38 1
38 19 1
13 40 1
14 9 1
37 7 1
7 16 1
16 17 1
17 37 1
37 9 1
31 35 1
13 36 1
36 13 1
14 36 1
36 35 1
35 9 1
9 35 1
26 14 1
26 13 1
21 13 1
9 14 1
13 18 1
18 41 1
41 18 1
18 42 1
42 18 1
18 43 1
43 18 1
18 14 1
14 32 1
32 18 1
14 18 1
21 28 1
31 18 1
