9 10 41
10 9 36
34 10 18
10 12 16
10 34 16
12 10 14
10 1 14
22 21 14
21 22 12
10 41 12
41 10 11
12 9 9
11 10 9
90 10 9
10 11 8
19 21 8
21 19 8
34 9 8
34 11 8
10 53 7
9 34 6
53 10 6
64 60 6
60 10 6
10 60 6
11 12 5
21 1 5
11 34 5
9 1 5
1 22 5
9 12 5
59 10 5
10 90 5
60 64 5
22 1 4
12 1 4
21 10 4
10 21 4
12 34 4
21 41 4
34 12 4
1 34 4
1 10 4
12 53 4
53 12 4
10 64 4
64 59 4
10 59 4
82 21 4
12 11 3
19 1 3
29 19 3
41 34 3
11 41 3
1 9 3
11 9 3
41 12 3
41 11 3
9 59 3
1 21 3
22 82 3
82 22 3
21 82 3
64 10 3
41 21 3
1 19 2
22 19 2
53 41 2
12 61 2
59 9 2
10 68 2
59 64 2
59 68 2
60 59 2
41 9 2
21 83 2
1 87 2
90 64 2
9 90 2
1 90 2
9 41 2
9 64 2
1 64 2
64 9 2
64 1 2
1 2 1
2 3 1
3 4 1
4 5 1
5 6 1
6 7 1
7 8 1
8 9 1
10 13 1
13 14 1
14 15 1
15 10 1
10 16 1
16 17 1
17 10 1
9 18 1
18 19 1
19 20 1
20 21 1
19 23 1
23 10 1
10 19 1
19 24 1
24 12 1
10 25 1
25 26 1
26 27 1
27 22 1
19 22 1
1 28 1
28 29 1
19 30 1
30 19 1
19 29 1
19 31 1
31 19 1
1 29 1
21 32 1
32 33 1
33 12 1
1 16 1
16 10 1
9 35 1
35 21 1
10 36 1
36 10 1
1 37 1
37 10 1
10 38 1
38 39 1
39 34 1
19 40 1
40 21 1
19 12 1
12 22 1
1 11 1
10 42 1
42 34 1
34 43 1
43 9 1
34 41 1
10 44 1
44 9 1
9 21 1
1 45 1
45 21 1
21 46 1
46 10 1
9 44 1
44 10 1
10 47 1
47 22 1
22 48 1
48 1 1
9 49 1
49 1 1
21 9 1
11 50 1
50 21 1
22 51 1
51 52 1
52 10 1
12 21 1
1 54 1
54 53 1
41 55 1
55 56 1
56 10 1
1 12 1
12 57 1
57 10 1
1 58 1
58 10 1
59 60 1
60 11 1
61 12 1
34 61 1
61 62 1
62 61 1
61 10 1
61 1 1
12 63 1
63 64 1
60 9 1
9 65 1
65 10 1
59 66 1
66 10 1
1 67 1
67 9 1
68 60 1
68 10 1
68 34 1
34 60 1
21 69 1
69 19 1
1 41 1
12 41 1
9 70 1
70 71 1
71 1 1
1 72 1
72 73 1
73 9 1
10 74 1
74 10 1
1 75 1
75 10 1
1 76 1
76 77 1
77 9 1
9 78 1
78 79 1
79 12 1
21 80 1
80 81 1
81 1 1
82 83 1
83 22 1
83 82 1
1 83 1
83 84 1
84 21 1
1 85 1
85 11 1
10 86 1
86 1 1
87 88 1
88 89 1
89 60 1
60 90 1
68 59 1
64 90 1
64 91 1
91 1 1
10 82 1
10 92 1
92 9 1
10 93 1
93 90 1
21 12 1
12 94 1
94 12 1
1 95 1
95 12 1
41 96 1
96 64 1
64 27 1
27 64 1
1 60 1
64 41 1
59 97 1
97 9 1
60 1 1
64 12 1
12 60 1
21 34 1
9 11 1
34 98 1
98 1 1
22 34 1
1 99 1
99 21 1
21 100 1
100 11 1
10 101 1
101 87 1
87 10 1
64 102 1
102 64 1
10 103 1
103 64 1
90 9 1
9 104 1
104 10 1
10 22 1
11 105 1
105 10 1
60 106 1
106 64 1
87 107 1
107 21 1
83 108 1
108 22 1
22 41 1
