2 12 44
2 34 42
12 2 41
34 2 40
54 2 25
2 54 24
70 16 22
16 70 22
2 9 18
9 2 18
44 2 17
2 44 16
2 53 15
53 2 14
26 2 11
2 6 10
2 26 10
28 16 10
2 56 10
56 2 10
58 12 10
6 2 9
12 58 9
2 16 7
16 2 6
16 28 6
2 10 5
10 2 5
2 24 5
2 41 5
41 2 5
2 58 5
16 66 5
24 2 4
2 39 4
58 2 4
66 16 4
2 5 3
5 2 3
7 2 3
27 29 3
29 28 3
12 26 3
19 2 3
37 2 3
39 2 3
12 34 3
6 7 2
2 11 2
11 2 2
2 13 2
13 14 2
13 15 2
14 2 2
2 17 2
17 2 2
12 19 2
14 20 2
27 28 2
29 27 2
16 29 2
26 12 2
16 31 2
2 19 2
19 27 2
36 2 2
2 37 2
39 12 2
2 42 2
56 19 2
12 56 2
2 57 2
34 12 2
63 2 2
2 64 2
64 2 2
34 16 2
67 2 2
16 73 2
73 2 2
74 16 2
1 2 1
2 3 1
3 2 1
2 4 1
4 2 1
6 5 1
5 6 1
7 6 1
2 8 1
8 6 1
6 8 1
8 2 1
14 13 1
15 13 1
2 14 1
12 18 1
18 13 1
15 14 1
14 18 1
18 12 1
19 14 1
20 11 1
11 13 1
13 21 1
21 22 1
22 14 1
20 2 1
2 18 1
18 2 1
2 23 1
23 2 1
24 25 1
25 2 1
2 27 1
16 27 1
29 2 1
12 16 1
28 29 1
28 27 1
16 30 1
30 24 1
24 26 1
26 27 1
27 26 1
26 16 1
31 16 1
31 2 1
2 32 1
32 2 1
2 33 1
33 2 1
13 2 1
27 12 1
12 13 1
13 19 1
27 34 1
34 35 1
35 2 1
2 36 1
34 36 1
37 12 1
12 37 1
2 38 1
38 2 1
12 39 1
2 40 1
40 2 1
2 7 1
42 43 1
43 34 1
34 44 1
2 45 1
45 34 1
16 34 1
12 46 1
46 2 1
2 47 1
47 2 1
12 47 1
47 48 1
48 47 1
47 49 1
49 47 1
47 21 1
21 50 1
50 7 1
7 47 1
47 7 1
2 51 1
51 52 1
52 2 1
42 2 1
2 55 1
55 2 1
16 56 1
56 12 1
57 2 1
57 58 1
58 57 1
57 12 1
34 58 1
2 59 1
59 2 1
58 60 1
60 61 1
61 12 1
53 16 1
16 62 1
62 2 1
34 63 1
2 63 1
41 26 1
26 41 1
2 65 1
65 2 1
19 12 1
12 29 1
29 12 1
16 37 1
16 67 1
67 16 1
16 68 1
68 28 1
66 69 1
69 67 1
2 67 1
67 69 1
69 34 1
34 67 1
2 66 1
66 2 1
2 70 1
2 71 1
71 2 1
2 72 1
72 2 1
2 73 1
73 16 1
2 61 1
61 74 1
74 75 1
75 74 1
16 76 1
76 73 1
73 77 1
77 2 1
2 74 1
74 76 1
76 16 1
70 78 1
78 74 1
2 79 1
79 54 1
2 80 1
80 2 1
2 81 1
81 82 1
82 83 1
83 84 1
84 85 1
85 16 1
16 86 1
86 16 1
