6 7 13
7 6 13
6 3 9
14 5 8
5 14 8
5 3 7
3 6 6
3 5 6
3 7 6
22 7 6
6 4 5
7 3 5
22 6 5
4 5 4
3 22 4
7 22 4
6 5 3
5 6 3
4 6 3
5 7 3
7 5 3
14 3 3
3 15 3
5 22 3
3 4 2
5 4 2
4 3 2
3 14 2
5 15 2
15 14 2
16 14 2
16 5 2
5 16 2
17 3 2
16 3 2
20 5 2
7 25 2
1 2 1
2 3 1
3 8 1
8 9 1
9 7 1
7 4 1
4 7 1
7 10 1
10 3 1
3 11 1
11 12 1
12 13 1
13 3 1
15 3 1
3 16 1
14 16 1
15 5 1
15 17 1
14 17 1
17 18 1
18 16 1
3 17 1
3 19 1
19 3 1
3 20 1
5 20 1
14 20 1
20 21 1
21 20 1
20 3 1
22 5 1
7 23 1
23 16 1
7 24 1
24 6 1
6 24 1
24 22 1
25 7 1
25 6 1
6 25 1
25 22 1
22 26 1
26 25 1
25 5 1
