8 9 55
9 8 52
9 3 43
3 9 39
10 9 38
9 10 35
15 9 16
9 15 16
14 9 15
22 17 15
13 11 13
11 13 13
15 14 13
9 14 13
9 17 13
2 9 12
3 8 11
9 4 11
14 15 11
9 20 11
17 9 11
4 9 10
20 9 10
17 22 10
3 2 8
8 3 8
17 13 8
3 10 8
13 14 8
13 17 7
9 2 7
14 13 7
2 3 6
21 9 6
10 8 6
9 13 6
3 4 5
17 11 5
11 17 5
8 10 5
15 3 5
6 3 4
9 11 4
9 21 4
10 3 4
13 9 4
11 9 4
15 10 4
4 3 3
14 11 3
16 12 3
8 4 3
8 17 3
13 10 3
10 13 3
10 15 3
10 14 3
3 15 3
2 4 2
3 5 2
5 3 2
2 6 2
4 6 2
11 12 2
12 13 2
11 14 2
11 15 2
10 11 2
12 16 2
9 19 2
20 8 2
20 10 2
19 2 2
8 22 2
17 23 2
23 22 2
17 15 2
24 14 2
13 15 2
4 8 2
14 8 2
3 17 2
17 8 2
17 3 2
9 22 2
13 3 2
14 10 2
17 30 2
8 15 2
17 10 2
4 17 2
1 2 1
4 2 1
5 4 1
4 5 1
3 6 1
6 2 1
3 7 1
7 3 1
12 11 1
13 12 1
17 16 1
12 2 1
2 18 1
18 9 1
19 8 1
3 21 1
2 8 1
10 2 1
15 24 1
15 13 1
14 17 1
15 25 1
25 14 1
14 24 1
14 26 1
26 14 1
14 3 1
4 14 1
9 6 1
6 9 1
17 2 1
22 8 1
2 19 1
2 17 1
22 27 1
27 2 1
9 28 1
28 21 1
10 20 1
4 13 1
11 3 1
3 11 1
15 11 1
11 10 1
9 29 1
29 14 1
14 22 1
17 29 1
29 22 1
30 31 1
31 17 1
30 15 1
8 2 1
22 2 1
17 4 1
8 20 1
9 32 1
32 20 1
10 33 1
33 34 1
34 35 1
35 9 1
13 36 1
36 9 1
9 37 1
37 38 1
38 39 1
39 40 1
40 9 1
2 41 1
41 2 1
