6 27 126
27 6 125
6 15 53
15 6 52
6 8 13
8 6 13
6 2 12
6 70 10
2 6 9
14 6 7
45 6 7
70 6 7
13 6 6
6 14 6
6 45 6
7 6 5
6 9 5
9 6 5
6 13 5
6 51 5
6 62 5
6 7 4
21 6 4
51 6 4
66 15 4
17 6 3
6 21 3
6 55 3
55 6 3
62 6 3
62 63 3
70 27 3
6 17 2
26 27 2
27 26 2
26 6 2
6 26 2
38 14 2
6 43 2
43 44 2
47 6 2
27 8 2
6 57 2
58 6 2
60 6 2
63 6 2
64 6 2
6 64 2
6 66 2
15 66 2
33 6 2
6 33 2
70 74 2
73 60 2
1 2 1
2 3 1
3 4 1
4 5 1
5 6 1
6 10 1
10 6 1
6 11 1
11 6 1
6 12 1
12 13 1
15 16 1
16 17 1
17 15 1
15 17 1
15 18 1
18 6 1
6 19 1
19 20 1
20 13 1
13 21 1
6 22 1
22 23 1
23 24 1
24 25 1
25 26 1
26 28 1
28 29 1
29 30 1
30 27 1
27 31 1
31 14 1
6 32 1
32 33 1
33 34 1
34 33 1
33 35 1
35 36 1
36 33 1
33 37 1
37 38 1
14 38 1
14 16 1
16 6 1
6 39 1
39 6 1
6 40 1
40 25 1
25 41 1
41 42 1
42 7 1
44 45 1
6 46 1
46 45 1
44 6 1
45 27 1
6 47 1
6 48 1
48 6 1
2 24 1
24 6 1
6 49 1
49 50 1
50 6 1
2 27 1
27 51 1
51 27 1
27 52 1
52 6 1
8 27 1
6 53 1
53 6 1
6 54 1
54 6 1
6 56 1
56 6 1
57 6 1
57 58 1
6 58 1
6 59 1
59 6 1
51 43 1
43 24 1
24 60 1
6 61 1
61 6 1
2 62 1
63 62 1
62 64 1
64 55 1
55 65 1
65 6 1
15 8 1
8 67 1
67 6 1
8 68 1
68 69 1
69 6 1
27 47 1
27 16 1
16 70 1
70 71 1
71 70 1
27 72 1
72 40 1
40 6 1
70 33 1
33 27 1
27 70 1
27 33 1
33 73 1
73 6 1
74 6 1
6 75 1
75 70 1
74 75 1
75 32 1
32 3 1
3 70 1
70 76 1
76 77 1
77 32 1
32 75 1
75 27 1
27 32 1
32 70 1
70 73 1
60 73 1
73 70 1
70 60 1
6 73 1
60 70 1
70 78 1
78 49 1
49 79 1
79 32 1
32 49 1
49 73 1
