13 11 31
11 13 29
16 4 24
4 16 23
10 13 14
13 10 13
10 11 11
11 10 9
39 13 8
4 20 7
20 4 6
23 11 6
11 23 6
13 39 6
4 5 5
16 26 5
39 4 5
5 4 4
26 16 4
4 11 4
11 4 3
4 13 3
13 4 3
4 38 2
20 39 2
18 16 2
20 18 2
6 4 2
4 39 2
55 11 2
11 55 2
55 13 2
13 55 2
13 16 2
18 13 2
26 11 2
1 2 1
2 3 1
3 4 1
5 6 1
6 7 1
7 8 1
8 9 1
9 10 1
11 12 1
12 10 1
10 14 1
14 10 1
11 15 1
15 16 1
4 17 1
17 18 1
18 19 1
19 4 1
4 10 1
13 21 1
21 13 1
13 22 1
22 13 1
13 23 1
23 24 1
24 23 1
23 13 1
13 25 1
25 6 1
6 11 1
11 16 1
26 27 1
27 4 1
4 28 1
28 29 1
29 30 1
30 4 1
4 30 1
30 31 1
31 30 1
30 32 1
32 33 1
33 34 1
34 6 1
6 32 1
32 35 1
35 6 1
6 36 1
36 37 1
37 10 1
38 4 1
38 39 1
39 20 1
13 40 1
40 11 1
11 41 1
41 10 1
10 42 1
42 4 1
4 43 1
43 44 1
44 45 1
45 46 1
46 13 1
10 4 1
13 18 1
4 6 1
6 16 1
16 47 1
47 4 1
16 20 1
4 48 1
48 6 1
4 49 1
49 4 1
4 50 1
50 51 1
51 20 1
18 39 1
4 52 1
52 39 1
11 53 1
53 11 1
11 39 1
11 54 1
54 55 1
55 56 1
56 14 1
14 55 1
55 57 1
57 16 1
4 58 1
58 59 1
59 13 1
11 56 1
56 11 1
16 60 1
60 56 1
56 13 1
11 18 1
11 61 1
61 56 1
56 18 1
18 43 1
43 16 1
16 56 1
56 4 1
16 6 1
16 62 1
62 26 1
11 26 1
11 63 1
63 64 1
64 65 1
65 18 1
13 66 1
66 67 1
67 68 1
68 69 1
69 11 1
11 70 1
70 11 1
16 71 1
71 4 1
11 72 1
72 18 1
18 11 1
