5 2 41
2 5 38
14 2 17
1 5 16
2 14 16
5 1 12
11 5 10
4 5 9
5 11 9
1 2 6
5 4 6
2 1 6
5 6 5
6 5 5
2 3 4
5 30 4
30 5 4
2 18 4
15 14 3
14 13 3
5 32 3
3 2 2
3 4 2
2 7 2
7 3 2
3 8 2
8 9 2
9 8 2
8 3 2
3 10 2
10 2 2
2 11 2
13 14 2
14 15 2
2 22 2
22 2 2
14 25 2
25 14 2
14 18 2
14 27 2
27 14 2
2 28 2
28 5 2
5 29 2
29 5 2
18 2 2
47 2 2
5 12 1
12 1 1
5 13 1
13 9 1
9 13 1
13 16 1
16 14 1
13 17 1
17 18 1
18 17 1
17 2 1
2 19 1
19 2 1
2 20 1
20 21 1
21 22 1
22 23 1
23 20 1
20 2 1
2 24 1
24 3 1
3 18 1
18 14 1
25 13 1
13 25 1
18 13 1
13 15 1
18 22 1
22 26 1
26 22 1
2 23 1
23 27 1
27 20 1
20 23 1
23 22 1
22 27 1
27 2 1
22 14 1
14 4 1
11 14 1
5 31 1
31 5 1
5 16 1
16 29 1
29 1 1
32 5 1
32 33 1
33 5 1
5 33 1
33 34 1
34 5 1
5 27 1
27 35 1
35 5 1
5 36 1
36 2 1
2 37 1
37 2 1
5 38 1
38 2 1
2 39 1
39 40 1
40 38 1
38 41 1
41 2 1
18 5 1
18 42 1
42 43 1
43 44 1
44 45 1
45 46 1
46 1 1
32 47 1
5 47 1
5 48 1
