11 12 10
12 11 10
21 12 10
12 21 10
31 12 6
12 31 6
12 23 6
23 12 6
25 23 5
12 5 5
5 20 4
31 11 4
40 41 4
5 12 4
5 6 3
23 25 3
11 31 3
20 12 3
41 12 3
12 40 3
42 12 3
6 5 2
8 9 2
16 5 2
27 26 2
26 27 2
27 20 2
41 40 2
40 42 2
12 42 2
5 49 2
49 21 2
1 2 1
2 3 1
3 4 1
4 5 1
6 7 1
7 5 1
5 8 1
9 8 1
9 10 1
10 11 1
11 13 1
13 12 1
12 14 1
14 12 1
11 15 1
15 12 1
11 5 1
5 16 1
5 17 1
17 18 1
18 5 1
5 19 1
19 5 1
20 18 1
18 21 1
21 22 1
22 23 1
23 24 1
24 25 1
23 26 1
26 20 1
20 25 1
23 27 1
26 25 1
25 27 1
20 26 1
20 28 1
28 20 1
20 29 1
29 12 1
12 30 1
30 20 1
20 31 1
12 32 1
32 12 1
12 33 1
33 23 1
23 20 1
20 34 1
34 12 1
11 23 1
23 11 1
11 35 1
35 36 1
36 5 1
5 37 1
37 20 1
20 16 1
12 38 1
38 12 1
12 39 1
39 40 1
41 42 1
42 40 1
42 41 1
12 41 1
40 12 1
12 43 1
43 44 1
44 12 1
12 45 1
45 21 1
21 46 1
46 11 1
12 47 1
47 20 1
20 5 1
5 34 1
34 11 1
11 20 1
12 48 1
48 12 1
49 5 1
49 11 1
11 21 1
21 11 1
11 50 1
50 12 1
12 49 1
21 49 1
21 51 1
51 12 1
12 52 1
52 5 1
20 53 1
53 11 1
12 20 1
12 54 1
54 5 1
20 55 1
55 11 1
11 56 1
56 57 1
