12 13 36
13 12 31
16 12 15
2 6 15
6 2 14
2 12 12
12 16 12
13 21 11
21 13 10
13 2 9
2 13 9
21 12 9
12 21 9
12 2 8
12 6 7
21 2 7
13 16 7
6 12 6
2 21 5
16 13 5
8 2 3
15 12 3
12 15 3
2 16 3
39 40 3
5 2 2
2 5 2
6 5 2
15 16 2
17 12 2
30 2 2
23 35 2
35 23 2
16 2 2
1 2 1
2 3 1
3 4 1
4 5 1
5 6 1
2 4 1
4 6 1
5 7 1
7 8 1
5 9 1
9 10 1
10 11 1
11 2 1
13 14 1
14 15 1
15 13 1
13 15 1
16 15 1
13 17 1
6 18 1
18 12 1
12 8 1
8 6 1
6 19 1
19 13 1
12 17 1
17 13 1
2 20 1
20 21 1
2 22 1
22 23 1
23 2 1
13 24 1
24 8 1
8 13 1
2 25 1
25 2 1
16 26 1
26 16 1
13 27 1
27 17 1
17 28 1
28 2 1
6 29 1
29 30 1
2 31 1
31 32 1
32 30 1
30 28 1
28 30 1
12 4 1
4 12 1
12 33 1
33 34 1
34 13 1
13 23 1
23 36 1
36 37 1
37 35 1
35 38 1
38 35 1
35 39 1
40 6 1
6 8 1
8 41 1
41 4 1
4 39 1
40 39 1
39 42 1
42 43 1
43 2 1
2 41 1
41 44 1
44 39 1
40 2 1
2 45 1
45 46 1
46 13 1
12 47 1
47 12 1
13 47 1
47 8 1
2 17 1
17 2 1
12 48 1
48 6 1
6 49 1
49 7 1
7 6 1
6 50 1
50 51 1
51 52 1
52 53 1
53 26 1
26 6 1
6 13 1
13 8 1
8 12 1
13 54 1
54 17 1
17 55 1
55 17 1
17 56 1
56 17 1
12 57 1
57 13 1
13 57 1
57 12 1
13 58 1
58 59 1
59 2 1
12 60 1
60 8 1
2 61 1
61 2 1
2 62 1
62 2 1
16 63 1
63 49 1
49 64 1
64 65 1
65 60 1
60 13 1
13 66 1
66 16 1
2 67 1
67 13 1
16 68 1
68 13 1
13 25 1
25 69 1
