15 10 25
10 15 23
18 15 21
15 18 21
15 22 16
22 15 15
23 15 11
15 23 9
18 23 7
14 23 6
23 18 5
15 14 4
19 15 4
23 14 4
23 50 4
14 15 3
15 19 3
50 23 3
14 18 2
21 15 2
22 10 2
19 14 2
23 22 2
1 2 1
2 3 1
3 4 1
4 5 1
5 6 1
6 7 1
7 8 1
8 7 1
7 9 1
9 10 1
10 11 1
11 12 1
12 10 1
10 13 1
13 14 1
14 16 1
16 17 1
17 18 1
18 19 1
18 20 1
20 21 1
21 22 1
18 14 1
15 24 1
24 23 1
15 25 1
25 26 1
26 27 1
27 28 1
28 25 1
25 29 1
29 30 1
30 19 1
19 18 1
22 31 1
31 21 1
21 10 1
10 32 1
32 18 1
18 33 1
33 34 1
34 15 1
10 18 1
18 35 1
35 21 1
15 35 1
35 15 1
10 36 1
36 37 1
37 18 1
18 22 1
15 21 1
22 19 1
10 38 1
38 19 1
19 23 1
23 19 1
23 39 1
39 18 1
23 40 1
40 23 1
15 41 1
41 15 1
10 23 1
23 42 1
42 22 1
22 23 1
22 43 1
43 44 1
44 25 1
25 45 1
45 23 1
23 25 1
25 10 1
10 45 1
45 15 1
10 46 1
46 10 1
10 47 1
47 48 1
48 10 1
23 49 1
49 23 1
50 51 1
51 52 1
52 53 1
53 52 1
52 54 1
54 55 1
55 52 1
52 23 1
23 56 1
56 12 1
12 57 1
57 58 1
58 59 1
59 23 1
23 60 1
60 61 1
