15 14 20
14 15 19
23 15 16
15 23 14
18 15 11
18 14 10
15 18 9
14 18 8
15 37 8
14 31 7
14 23 7
37 15 7
23 14 6
18 28 4
30 14 4
31 15 4
15 31 4
31 14 4
28 18 3
14 30 3
15 8 3
31 18 3
17 14 2
15 25 2
28 14 2
8 14 2
17 15 2
18 31 2
8 15 2
17 49 2
1 2 1
2 3 1
3 4 1
4 3 1
3 5 1
5 6 1
6 7 1
7 8 1
8 9 1
9 10 1
10 11 1
11 10 1
10 9 1
9 12 1
12 13 1
13 10 1
10 14 1
15 16 1
16 17 1
14 19 1
19 18 1
15 20 1
20 17 1
17 21 1
21 22 1
22 15 1
14 21 1
21 23 1
23 17 1
17 8 1
8 24 1
24 18 1
18 23 1
25 18 1
15 26 1
26 18 1
18 27 1
27 15 1
15 27 1
27 14 1
14 27 1
27 18 1
18 29 1
29 18 1
14 28 1
14 25 1
25 30 1
31 25 1
25 31 1
8 28 1
28 32 1
32 33 1
33 34 1
34 35 1
35 14 1
14 8 1
31 36 1
36 31 1
18 17 1
15 17 1
37 38 1
38 15 1
14 39 1
39 15 1
8 40 1
40 17 1
17 41 1
41 17 1
17 18 1
31 8 1
23 8 1
31 23 1
23 42 1
42 15 1
14 43 1
43 15 1
15 44 1
44 45 1
45 15 1
15 46 1
46 15 1
15 47 1
47 15 1
15 29 1
29 14 1
15 48 1
48 17 1
14 17 1
49 17 1
49 27 1
27 17 1
17 50 1
50 15 1
15 51 1
51 18 1
25 23 1
23 52 1
52 23 1
14 53 1
53 15 1
15 50 1
50 14 1
