10 9 14
9 10 12
9 13 11
13 9 8
4 13 6
13 42 6
6 7 5
15 7 5
10 13 5
13 4 5
13 10 5
42 13 5
7 6 4
6 13 4
13 31 4
6 12 3
12 6 3
13 6 3
7 15 3
13 12 3
9 4 3
4 24 3
31 13 3
10 6 2
12 10 2
12 13 2
6 17 2
4 9 2
24 4 2
13 15 2
10 31 2
31 10 2
1 2 1
2 3 1
3 4 1
4 5 1
5 6 1
6 8 1
8 9 1
7 11 1
11 6 1
13 14 1
14 9 1
13 7 1
7 9 1
9 15 1
7 13 1
6 16 1
16 6 1
17 18 1
18 6 1
6 19 1
19 8 1
8 6 1
17 13 1
13 20 1
20 13 1
6 9 1
9 6 1
9 21 1
21 12 1
12 4 1
4 22 1
22 4 1
4 23 1
23 4 1
24 13 1
9 16 1
16 13 1
15 13 1
7 25 1
25 26 1
26 27 1
27 7 1
7 28 1
28 3 1
3 29 1
29 28 1
28 29 1
29 3 1
3 7 1
7 30 1
30 9 1
31 32 1
32 10 1
31 33 1
33 12 1
12 9 1
13 34 1
34 10 1
9 35 1
35 13 1
13 36 1
36 9 1
13 37 1
37 38 1
38 13 1
13 39 1
39 9 1
13 40 1
40 31 1
13 38 1
38 41 1
41 42 1
42 43 1
43 13 1
42 10 1
10 44 1
44 13 1
13 45 1
45 46 1
46 10 1
9 12 1
10 40 1
40 10 1
10 7 1
7 47 1
47 7 1
7 10 1
