5 11 21
11 5 19
23 11 7
11 23 7
15 16 4
26 11 4
11 33 4
33 11 4
44 11 4
16 15 3
31 5 3
34 5 3
5 34 3
11 44 3
11 26 3
5 6 2
7 5 2
27 5 2
5 29 2
13 31 2
5 31 2
1 2 1
2 3 1
3 4 1
4 5 1
6 5 1
6 7 1
5 8 1
8 5 1
5 7 1
5 9 1
9 10 1
10 11 1
11 12 1
12 11 1
11 13 1
13 5 1
11 14 1
14 15 1
16 17 1
17 13 1
13 16 1
16 18 1
18 19 1
19 20 1
20 19 1
19 16 1
16 11 1
11 21 1
21 22 1
22 21 1
21 23 1
23 24 1
24 25 1
25 23 1
23 26 1
26 5 1
5 26 1
11 27 1
5 28 1
28 5 1
5 27 1
29 22 1
22 5 1
29 5 1
5 30 1
30 13 1
5 32 1
32 5 1
5 13 1
31 13 1
13 11 1
11 34 1
34 35 1
35 5 1
11 36 1
36 13 1
13 37 1
37 13 1
13 33 1
33 38 1
38 11 1
11 39 1
39 11 1
11 40 1
40 41 1
41 42 1
42 43 1
43 44 1
44 13 1
13 45 1
45 44 1
11 41 1
41 11 1
11 46 1
46 47 1
47 48 1
48 5 1
5 49 1
49 5 1
5 50 1
50 51 1
51 5 1
11 25 1
25 11 1
5 52 1
52 25 1
25 13 1
13 26 1
26 53 1
53 11 1
11 54 1
