7 17 28
17 7 26
16 17 22
17 18 22
17 16 19
18 17 18
7 16 10
18 7 9
16 7 9
7 18 7
18 16 6
28 7 5
7 20 4
20 7 4
16 18 3
17 20 3
22 17 3
18 34 3
34 18 3
6 7 2
7 6 2
7 22 2
7 28 2
7 30 2
30 7 2
34 17 2
17 34 2
18 38 2
28 41 2
7 42 2
17 28 2
17 48 2
1 2 1
2 3 1
3 4 1
4 5 1
5 6 1
7 8 1
8 9 1
9 10 1
10 9 1
9 11 1
11 12 1
12 13 1
13 14 1
14 10 1
10 15 1
15 10 1
10 16 1
7 19 1
19 16 1
20 21 1
21 7 1
20 22 1
20 23 1
23 7 1
17 24 1
24 17 1
7 25 1
25 26 1
26 25 1
25 27 1
27 28 1
28 26 1
26 7 1
7 29 1
29 7 1
16 31 1
31 16 1
16 32 1
32 7 1
17 33 1
33 17 1
17 35 1
35 34 1
34 36 1
36 34 1
34 37 1
37 18 1
38 7 1
7 39 1
39 17 1
16 40 1
40 28 1
41 28 1
42 28 1
41 7 1
42 7 1
7 43 1
43 7 1
28 44 1
44 18 1
38 18 1
17 45 1
45 16 1
28 46 1
46 7 1
17 47 1
47 17 1
48 17 1
7 38 1
38 33 1
33 7 1
6 49 1
49 17 1
17 50 1
50 17 1
18 48 1
48 18 1
17 51 1
51 7 1
18 52 1
52 17 1
16 53 1
53 16 1
7 54 1
54 7 1
16 55 1
55 16 1
16 56 1
56 17 1
48 26 1
26 28 1
7 57 1
57 28 1
16 58 1
58 18 1
7 55 1
55 17 1
7 59 1
59 17 1
