7 3 76
3 7 73
8 3 12
3 8 11
7 14 7
23 7 6
7 23 6
14 7 5
2 7 5
5 3 4
3 5 4
23 3 4
33 3 4
7 2 3
3 23 3
3 33 3
3 6 2
6 3 2
7 1 2
1 7 2
3 12 2
13 7 2
3 2 2
7 19 2
14 3 2
25 26 2
1 2 1
2 1 1
1 3 1
3 4 1
4 5 1
5 7 1
7 8 1
7 9 1
9 7 1
7 10 1
10 7 1
3 11 1
11 7 1
12 13 1
7 13 1
3 15 1
15 7 1
3 16 1
16 3 1
2 3 1
3 17 1
17 7 1
7 18 1
18 7 1
19 20 1
20 7 1
19 7 1
3 21 1
21 3 1
7 22 1
22 23 1
7 24 1
24 7 1
12 2 1
2 25 1
26 25 1
25 7 1
7 25 1
26 27 1
27 28 1
28 29 1
29 30 1
30 15 1
15 31 1
31 32 1
32 2 1
3 32 1
32 33 1
3 34 1
34 3 1
3 35 1
35 3 1
