8 9 56
9 8 51
2 9 12
9 2 10
20 9 7
9 20 7
3 2 6
8 11 6
2 3 5
11 8 5
9 27 5
8 2 4
2 11 4
11 2 4
20 8 4
27 8 4
32 9 4
34 9 4
9 34 4
8 20 3
8 27 3
27 9 3
9 32 3
9 35 3
7 8 2
2 8 2
13 14 2
9 13 2
13 8 2
14 13 2
22 20 2
25 8 2
31 32 2
32 31 2
9 3 2
7 9 2
35 9 2
35 8 2
1 2 1
2 4 1
4 5 1
5 2 1
2 6 1
6 4 1
4 7 1
2 10 1
10 11 1
9 12 1
12 13 1
14 15 1
15 13 1
13 16 1
16 9 1
13 9 1
8 14 1
14 17 1
17 9 1
9 18 1
18 11 1
11 17 1
17 14 1
14 11 1
11 14 1
8 19 1
19 20 1
8 21 1
21 22 1
20 22 1
20 23 1
23 22 1
22 24 1
24 7 1
7 25 1
8 22 1
22 9 1
9 11 1
11 26 1
26 8 1
27 10 1
10 8 1
8 28 1
28 9 1
9 28 1
28 18 1
18 9 1
9 29 1
29 30 1
30 9 1
9 31 1
31 33 1
33 20 1
20 32 1
3 34 1
9 7 1
34 8 1
9 25 1
9 15 1
15 8 1
11 35 1
35 7 1
8 35 1
9 36 1
36 7 1
8 37 1
37 8 1
20 38 1
38 20 1
