14 13 27
13 14 26
6 7 17
7 6 15
14 22 12
22 14 12
14 32 8
32 14 7
6 13 5
4 6 4
13 6 4
13 32 4
14 7 4
7 14 4
7 4 3
13 17 3
32 13 3
17 13 2
14 6 2
13 21 2
6 14 2
6 44 2
44 6 2
1 2 1
2 3 1
3 4 1
4 5 1
5 4 1
6 4 1
4 7 1
7 8 1
8 9 1
9 10 1
10 11 1
11 12 1
12 7 1
13 15 1
15 16 1
16 14 1
17 18 1
18 13 1
14 17 1
17 14 1
13 19 1
19 20 1
20 14 1
7 13 1
21 14 1
22 6 1
7 23 1
23 24 1
24 25 1
25 6 1
7 26 1
26 27 1
27 25 1
25 28 1
28 13 1
14 29 1
29 30 1
30 31 1
31 13 1
13 33 1
33 32 1
32 34 1
34 13 1
32 35 1
35 13 1
13 36 1
36 37 1
37 38 1
38 39 1
39 38 1
38 30 1
30 7 1
6 37 1
37 6 1
6 40 1
40 41 1
41 14 1
14 42 1
42 14 1
14 21 1
21 13 1
14 43 1
43 7 1
6 45 1
45 46 1
46 47 1
47 48 1
48 22 1
22 49 1
49 14 1
14 44 1
44 7 1
6 50 1
50 51 1
51 7 1
6 52 1
52 7 1
7 22 1
32 6 1
13 53 1
53 13 1
21 7 1
7 54 1
54 55 1
55 6 1
6 56 1
56 6 1
7 55 1
55 14 1
14 57 1
57 14 1
13 58 1
58 14 1
13 30 1
30 59 1
59 32 1
32 59 1
59 13 1
