20 19 31
19 20 29
3 19 20
19 3 19
27 19 15
19 27 15
13 9 12
9 13 12
3 20 10
20 3 10
3 27 10
19 6 8
27 3 8
20 26 7
6 19 7
19 9 6
20 39 6
26 20 5
34 20 5
9 19 5
39 20 5
11 12 4
20 34 4
2 3 3
12 11 3
6 3 3
19 39 3
3 2 2
9 10 2
3 13 2
3 10 2
10 3 2
20 24 2
27 20 2
20 13 2
13 20 2
9 20 2
20 9 2
9 36 2
36 3 2
3 6 2
38 20 2
39 19 2
41 9 2
1 2 1
3 4 1
4 3 1
3 5 1
5 6 1
6 7 1
7 8 1
8 9 1
9 2 1
2 9 1
10 11 1
12 3 1
13 14 1
14 10 1
10 6 1
3 15 1
15 3 1
10 16 1
16 10 1
10 17 1
17 18 1
18 15 1
15 10 1
19 21 1
21 22 1
22 3 1
3 23 1
23 3 1
24 3 1
3 25 1
25 26 1
26 27 1
26 28 1
28 20 1
26 29 1
29 20 1
20 30 1
30 6 1
6 31 1
31 32 1
32 20 1
20 33 1
33 19 1
27 34 1
3 35 1
35 3 1
19 22 1
22 19 1
36 6 1
6 36 1
6 20 1
13 19 1
19 37 1
37 20 1
24 27 1
20 38 1
39 40 1
40 19 1
39 3 1
27 9 1
3 9 1
10 41 1
9 41 1
13 42 1
42 13 1
19 43 1
43 9 1
9 44 1
44 20 1
9 38 1
36 27 1
27 36 1
20 45 1
