16 15 31
15 16 24
15 25 14
25 15 11
25 16 11
16 25 8
15 22 8
22 15 8
17 16 6
16 17 6
22 16 6
15 4 5
15 24 5
4 15 4
24 22 4
22 25 4
25 22 4
16 4 3
17 15 3
22 24 3
4 16 2
15 17 2
22 23 2
23 22 2
17 25 2
24 16 2
24 15 2
42 16 2
16 42 2
24 43 2
16 22 2
25 46 2
4 25 2
25 4 2
60 15 2
16 66 2
16 60 2
1 2 1
2 3 1
3 4 1
4 3 1
3 5 1
5 6 1
6 4 1
4 7 1
7 8 1
8 9 1
9 4 1
4 10 1
10 4 1
4 11 1
11 12 1
12 13 1
13 4 1
4 14 1
14 15 1
4 17 1
16 18 1
18 19 1
19 20 1
20 21 1
21 22 1
22 19 1
19 22 1
22 17 1
25 17 1
25 26 1
26 27 1
27 28 1
28 16 1
25 29 1
29 30 1
30 31 1
31 32 1
32 25 1
25 12 1
12 25 1
16 31 1
31 16 1
16 33 1
33 12 1
12 15 1
24 34 1
34 35 1
35 24 1
22 36 1
36 22 1
16 37 1
37 24 1
15 38 1
38 16 1
16 39 1
39 40 1
40 30 1
30 41 1
41 35 1
35 2 1
2 16 1
16 24 1
24 42 1
42 22 1
43 24 1
43 16 1
16 43 1
43 15 1
15 44 1
44 15 1
15 45 1
45 22 1
46 25 1
46 47 1
47 48 1
48 49 1
49 25 1
25 50 1
50 25 1
25 51 1
51 16 1
4 47 1
47 52 1
52 22 1
22 53 1
53 22 1
15 12 1
12 16 1
15 54 1
54 31 1
31 12 1
12 55 1
55 25 1
25 56 1
56 25 1
25 57 1
57 58 1
58 25 1
15 59 1
59 15 1
15 60 1
15 61 1
61 62 1
62 63 1
63 64 1
64 65 1
65 16 1
66 16 1
60 16 1
66 25 1
