24 6 25
6 24 25
8 9 23
9 8 22
7 14 14
7 6 13
14 7 13
11 12 12
6 7 10
12 11 10
6 11 10
11 13 9
7 20 9
20 7 8
13 11 8
13 6 7
11 6 7
12 13 6
6 9 6
30 6 6
6 30 6
6 13 6
13 12 5
9 6 5
12 6 4
33 9 4
21 20 3
9 33 3
8 10 2
8 7 2
7 15 2
18 19 2
20 21 2
20 18 2
24 7 2
10 26 2
26 9 2
28 7 2
6 31 2
31 6 2
24 11 2
9 32 2
32 8 2
15 7 2
6 12 2
10 8 2
1 2 1
2 3 1
3 4 1
4 5 1
5 1 1
1 6 1
6 8 1
10 11 1
15 16 1
16 17 1
17 18 1
19 7 1
7 21 1
19 6 1
6 22 1
22 7 1
7 9 1
9 7 1
18 17 1
17 23 1
23 24 1
7 25 1
25 9 1
9 10 1
9 27 1
27 8 1
9 26 1
8 28 1
6 28 1
6 29 1
29 24 1
7 12 1
11 7 1
11 30 1
30 24 1
24 18 1
18 11 1
13 9 1
14 12 1
11 15 1
20 15 1
15 20 1
7 18 1
18 33 1
9 24 1
24 12 1
12 24 1
11 24 1
12 10 1
26 10 1
8 26 1
26 8 1
9 13 1
13 34 1
