23 18 26
18 23 23
28 30 17
30 28 17
18 3 16
3 18 15
18 37 10
31 3 9
37 18 9
3 31 9
3 23 7
30 31 7
3 6 6
7 3 6
23 3 6
31 30 6
6 3 5
3 7 5
10 11 5
11 10 5
12 11 5
38 3 5
11 12 4
31 18 4
3 38 4
18 31 3
7 31 3
31 7 3
18 21 2
3 21 2
31 35 2
3 36 2
36 3 2
1 2 1
2 3 1
3 4 1
4 5 1
5 3 1
6 7 1
3 8 1
8 7 1
7 9 1
9 10 1
10 12 1
12 13 1
13 12 1
12 14 1
14 12 1
11 15 1
15 12 1
12 16 1
16 17 1
17 18 1
3 19 1
19 18 1
18 20 1
20 18 1
21 3 1
21 18 1
3 22 1
22 3 1
23 24 1
24 23 1
3 5 1
5 25 1
25 26 1
26 3 1
3 27 1
27 3 1
18 28 1
28 29 1
29 28 1
18 32 1
32 31 1
31 23 1
23 31 1
21 30 1
30 33 1
33 18 1
3 34 1
34 3 1
21 31 1
35 31 1
35 23 1
23 21 1
21 23 1
37 23 1
18 38 1
23 39 1
39 28 1
28 40 1
40 3 1
31 41 1
41 23 1
18 42 1
42 23 1
18 43 1
43 18 1
18 44 1
44 18 1
18 45 1
45 18 1
23 30 1
28 18 1
18 7 1
7 46 1
46 47 1
47 48 1
48 49 1
