10 3 34
3 10 29
3 47 20
47 3 20
13 3 7
11 10 6
3 13 6
10 11 5
3 11 4
13 12 4
14 13 4
11 12 4
13 10 4
3 4 3
11 3 3
12 13 3
12 11 3
3 15 3
10 13 3
2 3 2
9 3 2
3 9 2
12 14 2
13 14 2
3 41 2
3 28 2
11 14 2
14 11 2
28 13 2
1 2 1
3 2 1
4 5 1
5 4 1
4 6 1
6 7 1
7 3 1
3 8 1
8 9 1
9 10 1
3 12 1
13 15 1
15 16 1
16 13 1
12 17 1
17 12 1
10 18 1
18 10 1
13 19 1
19 20 1
20 13 1
3 21 1
21 14 1
14 22 1
22 11 1
4 3 1
4 13 1
3 23 1
23 24 1
24 3 1
3 25 1
25 26 1
26 27 1
27 28 1
28 29 1
29 30 1
30 31 1
31 32 1
32 28 1
28 32 1
32 33 1
33 34 1
34 35 1
35 36 1
36 3 1
3 37 1
37 38 1
38 39 1
39 3 1
3 40 1
40 3 1
41 42 1
42 3 1
3 42 1
42 43 1
43 3 1
41 3 1
3 44 1
44 3 1
3 45 1
45 3 1
3 46 1
46 3 1
47 48 1
48 47 1
3 49 1
49 3 1
3 50 1
50 47 1
3 51 1
51 3 1
47 52 1
52 47 1
47 53 1
53 3 1
11 54 1
54 28 1
28 55 1
55 12 1
12 3 1
28 56 1
56 12 1
12 10 1
12 57 1
57 3 1
10 57 1
57 11 1
11 47 1
47 11 1
10 58 1
58 10 1
3 59 1
59 3 1
15 3 1
15 28 1
28 10 1
15 10 1
3 60 1
60 3 1
3 61 1
61 28 1
28 62 1
62 28 1
13 63 1
63 13 1
13 64 1
64 13 1
13 65 1
65 13 1
13 66 1
66 3 1
13 28 1
28 3 1
3 67 1
67 68 1
68 69 1
69 70 1
