22 24 50
24 22 46
22 49 18
18 16 15
24 18 14
47 22 14
49 22 14
22 47 13
24 20 12
18 22 11
18 24 11
49 48 11
16 18 10
48 22 10
24 49 10
49 47 10
16 22 9
22 18 9
2 24 9
22 48 9
48 49 9
17 16 8
22 23 8
23 22 8
20 24 8
24 2 8
48 24 8
49 24 8
16 17 7
22 16 7
16 24 7
16 37 7
32 22 6
24 48 6
48 47 6
24 51 6
30 31 5
20 22 5
22 20 5
37 16 5
6 24 5
47 48 5
51 24 5
4 2 4
24 27 4
31 30 4
20 18 4
6 46 4
24 47 4
47 24 4
16 49 4
49 20 4
20 49 4
2 3 3
7 5 3
7 16 3
19 18 3
26 24 3
27 24 3
16 28 3
28 16 3
24 32 3
24 19 3
19 22 3
22 32 3
18 35 3
35 18 3
36 16 3
37 38 3
38 39 3
39 37 3
24 6 3
20 46 3
6 20 3
20 6 3
46 20 3
46 6 3
7 17 3
17 7 3
49 16 3
47 49 3
57 22 3
3 4 2
2 4 2
6 2 2
7 8 2
8 7 2
18 17 2
16 20 2
24 25 2
25 24 2
24 26 2
27 26 2
28 24 2
22 33 2
33 20 2
19 24 2
22 19 2
22 34 2
34 22 2
24 16 2
19 32 2
32 24 2
16 36 2
39 38 2
37 39 2
24 40 2
40 2 2
2 40 2
40 24 2
24 4 2
22 2 2
2 6 2
24 35 2
45 22 2
24 45 2
46 22 2
22 3 2
22 7 2
16 7 2
47 46 2
24 46 2
53 24 2
24 54 2
54 24 2
3 6 2
6 49 2
22 57 2
1 2 1
2 5 1
5 6 1
3 7 1
7 9 1
9 7 1
5 10 1
10 5 1
5 8 1
7 10 1
10 11 1
11 12 1
12 11 1
11 13 1
13 14 1
14 12 1
12 13 1
13 7 1
8 15 1
15 10 1
10 15 1
15 7 1
17 19 1
20 21 1
21 16 1
26 25 1
25 27 1
22 15 1
15 16 1
28 29 1
29 28 1
28 30 1
31 28 1
24 28 1
33 22 1
20 19 1
18 20 1
18 19 1
20 16 1
32 19 1
35 10 1
10 18 1
18 36 1
24 17 1
37 24 1
17 18 1
6 40 1
3 2 1
4 22 1
24 21 1
21 22 1
22 21 1
21 18 1
22 41 1
41 24 1
20 35 1
35 24 1
35 19 1
24 42 1
42 5 1
5 43 1
43 44 1
44 32 1
32 45 1
45 16 1
16 46 1
4 6 1
46 33 1
7 24 1
48 37 1
38 35 1
40 6 1
46 47 1
46 24 1
20 48 1
47 35 1
35 48 1
35 50 1
50 18 1
51 16 1
18 49 1
49 17 1
17 32 1
32 28 1
28 18 1
18 28 1
37 52 1
52 48 1
48 32 1
32 48 1
47 7 1
5 24 1
47 20 1
46 3 1
3 46 1
2 49 1
47 53 1
53 54 1
54 53 1
24 53 1
49 46 1
46 49 1
20 55 1
55 48 1
48 55 1
55 17 1
17 45 1
45 24 1
18 56 1
56 22 1
22 6 1
6 22 1
20 3 1
47 57 1
49 37 1
37 58 1
58 37 1
38 59 1
59 10 1
10 32 1
32 49 1
49 32 1
46 60 1
60 3 1
3 61 1
61 3 1
3 20 1
48 6 1
22 37 1
37 44 1
44 48 1
5 22 1
47 16 1
16 3 1
3 24 1
24 62 1
