9 8 26
8 9 25
19 6 18
9 27 18
30 6 18
6 30 18
3 4 17
6 19 17
27 9 17
4 3 15
17 8 10
4 11 9
8 17 9
7 8 8
11 4 8
8 7 7
3 11 5
11 3 5
8 33 5
33 8 5
8 12 4
1 2 3
12 8 3
11 6 3
2 1 2
4 5 2
13 14 2
6 18 2
18 19 2
23 24 2
27 22 2
22 27 2
30 36 2
8 27 2
2 4 2
4 2 2
2 3 1
5 6 1
6 7 1
9 4 1
5 10 1
10 3 1
11 12 1
12 13 1
14 15 1
15 8 1
8 13 1
13 16 1
16 17 1
12 6 1
6 20 1
20 21 1
21 9 1
9 22 1
22 23 1
24 23 1
24 25 1
25 26 1
26 27 1
27 25 1
25 9 1
27 4 1
6 28 1
28 6 1
6 5 1
5 29 1
29 30 1
6 31 1
31 30 1
6 32 1
32 5 1
5 8 1
33 15 1
15 13 1
14 33 1
8 14 1
14 17 1
17 33 1
33 34 1
34 8 1
8 11 1
4 35 1
35 11 1
36 18 1
19 30 1
30 37 1
37 30 1
36 6 1
18 6 1
6 9 1
27 38 1
38 27 1
27 8 1
8 39 1
39 27 1
27 11 1
30 9 1
9 40 1
40 9 1
9 2 1
2 9 1
