1 5 38
5 1 35
1 65 24
65 1 23
1 21 15
21 1 14
12 1 10
1 12 9
56 57 8
57 56 8
63 56 7
57 63 7
63 57 6
21 57 6
76 21 6
59 60 5
62 56 5
62 63 5
56 63 5
31 69 5
21 76 5
53 54 4
57 58 4
60 59 4
56 62 4
21 65 4
65 21 4
32 69 4
13 1 3
32 33 3
11 32 3
39 11 3
54 53 3
55 53 3
56 58 3
58 57 3
59 12 3
12 59 3
58 62 3
57 21 3
65 31 3
12 69 3
21 70 3
70 21 3
69 32 3
3 1 2
11 12 2
12 13 2
13 12 2
1 13 2
20 21 2
25 12 2
31 32 2
33 32 2
12 31 2
11 39 2
49 50 2
53 55 2
63 62 2
21 68 2
31 12 2
12 21 2
71 42 2
75 76 2
21 77 2
77 21 2
1 2 1
2 3 1
1 3 1
1 4 1
4 3 1
3 5 1
5 6 1
6 7 1
7 5 1
1 8 1
8 5 1
5 8 1
8 1 1
5 9 1
9 10 1
10 9 1
9 1 1
5 11 1
12 14 1
14 15 1
15 14 1
14 3 1
3 13 1
12 16 1
16 12 1
12 17 1
17 1 1
5 18 1
18 13 1
1 19 1
19 20 1
21 20 1
1 16 1
16 1 1
12 22 1
22 13 1
13 19 1
19 1 1
1 23 1
23 12 1
12 5 1
5 12 1
5 24 1
24 1 1
5 25 1
12 26 1
26 1 1
1 27 1
27 12 1
21 28 1
28 29 1
29 30 1
30 31 1
33 29 1
29 34 1
34 30 1
30 12 1
31 33 1
33 35 1
35 36 1
36 34 1
34 37 1
37 38 1
38 11 1
32 39 1
32 40 1
40 11 1
32 5 1
5 41 1
41 1 1
1 42 1
42 43 1
43 44 1
44 12 1
12 45 1
45 46 1
46 47 1
47 48 1
48 1 1
5 49 1
50 12 1
13 5 1
1 51 1
51 52 1
52 53 1
54 55 1
53 52 1
52 55 1
55 52 1
52 48 1
48 56 1
58 56 1
57 59 1
60 21 1
21 61 1
61 62 1
57 62 1
58 63 1
63 21 1
56 42 1
42 21 1
63 58 1
62 57 1
56 21 1
21 5 1
63 49 1
50 64 1
64 21 1
21 66 1
66 1 1
31 67 1
67 65 1
65 12 1
1 25 1
25 21 1
68 31 1
69 25 1
21 12 1
68 71 1
42 69 1
69 31 1
69 12 1
69 72 1
72 73 1
73 71 1
71 47 1
47 64 1
64 47 1
47 71 1
71 31 1
69 74 1
74 65 1
1 75 1
21 78 1
78 21 1
21 79 1
79 1 1
69 75 1
76 80 1
80 11 1
11 1 1
1 71 1
71 65 1
65 36 1
36 1 1
69 11 1
12 65 1
1 81 1
81 42 1
42 1 1
69 71 1
42 82 1
82 69 1
69 83 1
83 65 1
65 84 1
84 12 1
12 36 1
36 31 1
69 84 1
84 40 1
40 31 1
69 85 1
