2 6 82
6 2 75
2 4 55
4 2 49
4 6 38
6 4 32
6 8 21
8 2 18
8 6 17
4 27 17
27 4 16
4 39 15
39 4 14
2 8 11
12 4 11
4 41 11
41 4 11
4 7 10
4 12 9
16 4 9
7 4 8
4 16 8
4 5 7
2 7 7
7 2 7
36 6 6
5 2 5
2 5 5
5 8 5
6 13 5
9 4 5
5 4 5
4 30 5
41 37 5
30 2 5
5 6 4
7 6 4
8 5 4
9 8 4
6 9 4
8 7 4
4 8 4
8 4 4
4 9 4
13 2 4
19 2 4
2 19 4
6 27 4
28 6 4
30 4 4
6 36 4
37 41 4
2 30 4
2 3 3
3 4 3
8 9 3
9 6 3
7 5 3
13 8 3
6 16 3
2 13 3
6 5 3
6 28 3
3 2 2
4 3 2
6 7 2
9 7 2
7 9 2
2 10 2
7 8 2
6 12 2
13 6 2
4 1 2
19 21 2
21 19 2
19 22 2
22 19 2
22 4 2
22 6 2
6 22 2
4 23 2
10 4 2
6 10 2
33 4 2
38 37 2
37 16 2
37 4 2
16 12 2
39 37 2
12 44 2
46 4 2
4 46 2
1 2 1
10 6 1
5 7 1
7 11 1
11 8 1
8 13 1
6 14 1
14 8 1
8 15 1
15 2 1
1 6 1
16 9 1
8 17 1
17 8 1
5 18 1
18 19 1
19 20 1
20 19 1
19 1 1
1 19 1
19 6 1
13 22 1
4 22 1
23 4 1
23 24 1
24 6 1
6 25 1
25 2 1
2 25 1
25 6 1
6 26 1
26 2 1
27 2 1
27 6 1
4 28 1
6 29 1
29 6 1
5 31 1
31 32 1
32 2 1
6 33 1
4 34 1
34 4 1
4 33 1
33 2 1
2 33 1
6 35 1
35 4 1
36 2 1
27 37 1
37 12 1
27 8 1
8 36 1
36 38 1
16 36 1
6 37 1
16 37 1
12 16 1
12 36 1
6 38 1
37 39 1
39 12 1
12 40 1
40 12 1
12 39 1
41 36 1
37 38 1
38 12 1
4 42 1
42 41 1
12 41 1
37 2 1
4 43 1
43 4 1
12 5 1
27 12 1
44 12 1
44 4 1
4 45 1
45 4 1
4 36 1
36 7 1
6 46 1
46 16 1
16 47 1
47 26 1
26 48 1
48 2 1
2 49 1
49 50 1
50 51 1
51 52 1
52 51 1
51 53 1
53 54 1
54 9 1
9 55 1
55 49 1
49 56 1
56 57 1
57 49 1
49 6 1
2 55 1
55 6 1
10 2 1
2 58 1
58 59 1
59 2 1
5 1 1
1 60 1
60 2 1
2 61 1
61 2 1
2 1 1
1 13 1
1 62 1
