50 51 59
51 50 56
24 4 45
4 24 42
47 4 40
4 47 39
92 50 20
50 92 19
50 47 15
47 50 14
49 50 13
50 49 13
10 4 12
51 4 12
4 10 11
4 51 11
51 49 9
50 38 8
49 38 8
4 92 8
50 66 7
50 102 7
102 50 7
92 4 7
10 24 6
38 49 6
38 50 6
66 50 6
49 51 6
70 50 6
6 10 5
63 50 5
69 50 5
4 31 4
31 4 4
50 63 4
51 92 4
10 6 3
4 40 3
53 50 3
24 10 3
50 53 3
49 70 3
38 70 3
50 69 3
50 10 3
51 69 3
83 50 3
49 89 3
89 49 3
87 51 3
92 51 3
10 102 3
102 10 3
3 4 2
6 3 2
6 24 2
24 28 2
32 4 2
4 32 2
34 4 2
4 34 2
4 12 2
12 24 2
4 45 2
40 4 2
38 51 2
38 52 2
52 38 2
50 39 2
39 50 2
47 54 2
54 47 2
47 56 2
57 50 2
50 58 2
58 47 2
50 59 2
69 49 2
50 70 2
49 52 2
4 6 2
12 50 2
50 83 2
47 6 2
6 47 2
51 87 2
102 38 2
1 2 1
2 3 1
4 5 1
5 3 1
3 6 1
3 5 1
5 4 1
4 3 1
3 7 1
7 4 1
4 8 1
8 9 1
9 6 1
10 11 1
11 12 1
12 13 1
13 10 1
10 14 1
14 15 1
15 10 1
10 16 1
16 17 1
17 18 1
18 10 1
10 19 1
19 6 1
10 20 1
20 21 1
21 22 1
22 10 1
10 23 1
23 6 1
4 25 1
25 4 1
4 26 1
26 25 1
25 27 1
27 24 1
28 24 1
24 29 1
29 4 1
28 30 1
30 4 1
4 28 1
28 4 1
10 32 1
32 33 1
33 10 1
10 34 1
34 33 1
33 34 1
34 10 1
10 35 1
35 4 1
4 35 1
35 6 1
6 4 1
4 36 1
36 24 1
24 37 1
37 4 1
24 38 1
38 39 1
39 38 1
38 40 1
40 24 1
24 41 1
41 42 1
42 41 1
41 24 1
24 43 1
43 24 1
24 44 1
44 24 1
45 4 1
45 46 1
46 47 1
47 48 1
48 47 1
40 49 1
38 53 1
52 49 1
47 55 1
55 50 1
56 47 1
56 57 1
47 57 1
59 50 1
59 60 1
60 10 1
10 61 1
61 10 1
10 50 1
50 62 1
62 50 1
53 63 1
50 64 1
64 63 1
63 65 1
65 63 1
63 53 1
53 66 1
66 49 1
49 67 1
67 49 1
50 68 1
68 49 1
49 69 1
70 49 1
52 40 1
40 38 1
49 71 1
71 49 1
70 69 1
4 72 1
72 4 1
4 73 1
73 4 1
24 74 1
74 4 1
4 70 1
50 75 1
75 70 1
70 76 1
76 52 1
52 70 1
70 38 1
70 77 1
77 78 1
78 51 1
51 79 1
79 80 1
80 81 1
81 50 1
50 81 1
81 10 1
51 10 1
10 51 1
69 64 1
64 51 1
51 12 1
50 4 1
24 33 1
33 24 1
4 82 1
82 24 1
4 83 1
50 84 1
84 50 1
52 83 1
83 85 1
85 86 1
86 50 1
49 24 1
47 8 1
8 47 1
47 87 1
87 4 1
24 88 1
88 4 1
4 88 1
88 49 1
49 11 1
11 4 1
4 49 1
49 87 1
4 60 1
60 51 1
51 90 1
90 51 1
50 91 1
91 50 1
51 24 1
92 93 1
93 51 1
92 94 1
94 92 1
50 95 1
95 92 1
92 96 1
96 92 1
92 97 1
97 98 1
98 50 1
66 12 1
38 47 1
47 10 1
4 50 1
50 99 1
99 50 1
92 100 1
100 92 1
50 101 1
101 50 1
6 103 1
103 10 1
24 104 1
104 4 1
24 105 1
105 24 1
24 6 1
24 106 1
106 24 1
24 107 1
107 4 1
24 48 1
48 24 1
24 47 1
4 66 1
66 52 1
38 102 1
51 3 1
3 66 1
66 51 1
51 52 1
52 108 1
108 69 1
10 66 1
66 38 1
49 53 1
53 51 1
69 102 1
38 109 1
109 92 1
92 6 1
6 92 1
92 11 1
11 51 1
