5 3 42
3 4 41
3 5 38
4 3 35
3 13 19
13 3 19
3 36 18
18 8 16
36 3 15
3 47 15
47 3 14
8 3 14
3 11 13
11 3 13
8 18 12
3 8 11
44 3 10
19 18 9
3 44 9
18 19 8
18 28 7
3 9 6
37 3 6
3 18 5
3 37 5
18 3 5
14 3 4
3 14 4
9 3 4
18 5 4
28 18 4
47 5 4
36 4 4
4 36 4
5 18 3
23 3 3
3 24 3
18 26 3
27 29 3
46 3 3
5 47 3
4 18 3
50 3 3
6 5 2
8 5 2
5 8 2
3 12 2
12 3 2
13 14 2
12 13 2
22 3 2
3 22 2
22 23 2
3 23 2
24 3 2
25 3 2
26 18 2
18 25 2
25 19 2
28 29 2
3 34 2
35 36 2
40 3 2
41 3 2
3 41 2
36 8 2
3 46 2
4 19 2
42 18 2
49 44 2
44 43 2
43 44 2
4 44 2
3 50 2
8 52 2
36 50 2
4 8 2
8 4 2
8 54 2
54 8 2
18 53 2
53 18 2
1 2 1
2 3 1
4 5 1
5 6 1
3 7 1
7 8 1
5 7 1
7 5 1
8 6 1
9 10 1
10 3 1
14 13 1
13 15 1
15 13 1
13 16 1
16 12 1
14 12 1
3 17 1
17 3 1
9 11 1
11 5 1
5 19 1
19 20 1
20 18 1
19 21 1
21 18 1
19 8 1
19 22 1
23 18 1
18 22 1
24 19 1
18 9 1
9 25 1
3 26 1
26 25 1
26 19 1
19 25 1
25 27 1
27 28 1
18 27 1
29 19 1
28 19 1
19 28 1
28 27 1
29 27 1
29 28 1
29 18 1
29 3 1
3 30 1
30 18 1
28 31 1
31 32 1
32 33 1
33 32 1
32 3 1
34 3 1
34 18 1
8 35 1
36 37 1
3 35 1
36 38 1
38 36 1
36 39 1
39 40 1
3 40 1
36 41 1
41 42 1
42 3 1
3 42 1
42 41 1
41 4 1
4 43 1
43 3 1
4 45 1
45 4 1
36 42 1
42 36 1
8 46 1
19 3 1
36 18 1
18 4 1
19 36 1
3 19 1
19 42 1
18 42 1
28 4 1
3 48 1
48 36 1
36 48 1
48 4 1
36 49 1
44 4 1
44 50 1
50 51 1
51 52 1
52 18 1
52 51 1
51 18 1
8 51 1
51 8 1
52 8 1
8 50 1
3 49 1
44 36 1
50 36 1
50 18 1
8 36 1
3 25 1
25 53 1
53 8 1
3 54 1
54 55 1
55 8 1
8 53 1
53 3 1
4 56 1
56 3 1
