3 6 25
3 8 22
30 36 22
36 30 21
8 3 19
14 3 19
6 8 18
6 3 16
13 3 14
35 8 14
35 3 14
36 35 13
8 14 12
8 13 12
8 35 12
13 8 11
8 6 11
13 14 11
3 35 11
3 13 10
11 12 10
14 13 9
3 17 9
35 6 9
35 36 9
6 14 8
3 14 8
6 13 8
6 35 8
12 16 7
17 3 7
12 11 7
14 8 7
17 13 7
3 63 7
16 12 6
14 6 6
13 6 6
63 3 6
3 65 6
17 14 5
65 3 5
2 3 4
3 2 4
13 17 4
16 11 4
35 14 4
6 17 4
42 3 4
3 48 4
3 50 4
53 36 4
36 8 4
8 36 4
14 17 4
12 42 4
13 7 3
23 14 3
30 3 3
11 31 3
31 11 3
14 35 3
3 40 3
40 3 3
3 42 3
3 46 3
48 3 3
46 3 3
17 8 3
50 46 3
3 36 3
6 36 3
65 13 3
6 65 3
3 25 3
40 12 3
8 12 2
12 3 2
3 15 2
15 3 2
3 12 2
8 15 2
11 21 2
11 14 2
23 6 2
30 35 2
14 36 2
17 35 2
46 48 2
51 3 2
3 51 2
36 54 2
54 36 2
36 53 2
48 50 2
50 3 2
46 8 2
13 35 2
35 30 2
3 60 2
60 3 2
17 6 2
36 3 2
14 65 2
65 6 2
6 30 2
8 11 2
12 8 2
12 40 2
42 12 2
1 2 1
2 4 1
4 3 1
3 5 1
5 6 1
6 2 1
2 6 1
2 7 1
7 2 1
8 7 1
7 3 1
8 9 1
9 10 1
10 9 1
9 11 1
11 9 1
9 8 1
7 6 1
16 14 1
15 18 1
18 8 1
15 19 1
19 3 1
3 20 1
20 8 1
8 16 1
11 16 1
21 16 1
3 16 1
21 6 1
13 11 1
12 22 1
22 11 1
12 23 1
14 12 1
16 23 1
8 24 1
24 23 1
23 25 1
25 24 1
24 11 1
11 26 1
26 3 1
3 23 1
8 23 1
8 27 1
27 23 1
14 27 1
27 28 1
28 29 1
29 3 1
3 30 1
3 11 1
14 32 1
32 33 1
33 13 1
8 17 1
13 34 1
34 6 1
7 35 1
35 37 1
37 36 1
36 38 1
38 30 1
35 17 1
8 30 1
36 39 1
39 30 1
36 13 1
3 41 1
41 40 1
40 42 1
42 43 1
43 3 1
3 44 1
44 45 1
45 46 1
46 47 1
47 3 1
42 46 1
48 49 1
49 3 1
50 51 1
51 42 1
42 17 1
6 52 1
52 53 1
30 53 1
53 30 1
36 55 1
55 56 1
56 36 1
36 57 1
57 36 1
36 52 1
52 57 1
57 53 1
36 56 1
56 52 1
52 36 1
3 58 1
58 3 1
35 59 1
59 35 1
8 56 1
56 6 1
60 61 1
61 60 1
60 35 1
35 62 1
62 35 1
35 60 1
35 13 1
63 64 1
64 3 1
36 6 1
36 14 1
30 17 1
30 59 1
59 17 1
65 63 1
63 6 1
13 66 1
66 67 1
67 6 1
25 14 1
35 63 1
63 35 1
3 68 1
68 35 1
14 68 1
68 3 1
25 69 1
69 3 1
6 7 1
7 14 1
7 13 1
3 70 1
70 71 1
71 70 1
70 72 1
72 6 1
14 16 1
25 13 1
8 73 1
73 3 1
11 74 1
74 11 1
12 75 1
75 76 1
76 77 1
77 12 1
11 78 1
78 42 1
42 40 1
3 79 1
