12 9 63
9 12 59
47 9 40
9 47 39
52 9 27
9 52 26
91 12 22
9 6 21
75 76 21
6 9 20
52 47 20
12 91 20
47 52 18
12 69 18
76 75 18
69 12 17
9 27 10
27 9 10
9 69 8
36 29 7
29 36 7
39 36 7
6 76 7
9 91 7
39 29 6
9 14 6
36 39 6
69 9 6
76 9 6
91 9 6
2 9 5
12 14 5
29 39 5
6 12 5
56 55 4
2 27 4
76 6 4
6 75 4
69 76 4
27 6 3
6 14 3
55 52 3
75 12 3
69 14 3
14 69 3
69 6 3
12 6 3
9 75 3
75 6 3
9 76 3
76 12 3
75 69 3
52 12 3
12 75 3
4 5 2
7 8 2
8 9 2
17 18 2
9 5 2
23 9 2
6 27 2
27 8 2
9 29 2
34 9 2
9 34 2
36 27 2
27 3 2
9 2 2
42 29 2
46 9 2
8 3 2
14 47 2
45 46 2
14 2 2
47 29 2
47 14 2
55 56 2
2 6 2
6 29 2
29 27 2
6 45 2
45 8 2
6 8 2
3 6 2
57 55 2
12 70 2
70 12 2
14 75 2
77 12 2
2 8 2
8 2 2
84 6 2
14 86 2
14 9 2
36 6 2
8 6 2
6 47 2
45 36 2
6 3 2
76 14 2
118 120 2
120 118 2
6 101 2
47 126 2
126 47 2
1 2 1
2 3 1
3 4 1
5 6 1
6 7 1
9 10 1
10 11 1
11 12 1
12 2 1
6 13 1
13 9 1
9 7 1
7 12 1
14 15 1
15 16 1
16 17 1
18 4 1
4 18 1
18 19 1
19 20 1
20 6 1
6 17 1
18 21 1
21 9 1
5 4 1
5 22 1
22 18 1
18 23 1
5 24 1
24 14 1
14 25 1
25 26 1
26 6 1
6 28 1
28 27 1
29 30 1
30 31 1
31 32 1
32 30 1
30 33 1
33 30 1
30 34 1
34 32 1
32 34 1
34 35 1
35 36 1
3 37 1
37 6 1
27 38 1
38 39 1
39 40 1
40 39 1
27 39 1
39 41 1
41 39 1
39 42 1
42 43 1
43 14 1
14 42 1
29 42 1
29 44 1
44 36 1
29 9 1
14 29 1
29 45 1
45 9 1
9 46 1
3 2 1
9 45 1
29 47 1
9 36 1
29 6 1
9 43 1
43 6 1
9 3 1
3 9 1
6 48 1
48 9 1
9 49 1
49 9 1
47 50 1
50 47 1
9 51 1
51 52 1
9 53 1
53 47 1
14 54 1
54 55 1
56 57 1
57 56 1
55 58 1
58 55 1
55 57 1
57 59 1
59 2 1
8 46 1
46 45 1
45 6 1
6 60 1
60 6 1
14 61 1
61 57 1
55 9 1
14 62 1
62 63 1
63 64 1
64 65 1
65 66 1
66 67 1
67 12 1
12 68 1
68 9 1
70 71 1
71 72 1
72 12 1
9 73 1
73 9 1
9 70 1
14 74 1
74 47 1
52 55 1
47 57 1
14 77 1
12 76 1
36 2 1
27 14 1
14 46 1
46 8 1
8 45 1
8 78 1
78 39 1
39 79 1
79 27 1
27 2 1
14 80 1
80 75 1
6 69 1
69 75 1
12 39 1
39 9 1
12 81 1
81 6 1
14 43 1
43 82 1
82 52 1
47 83 1
83 12 1
14 12 1
14 6 1
75 23 1
23 56 1
56 84 1
75 84 1
76 85 1
85 81 1
81 86 1
86 69 1
76 87 1
87 14 1
86 6 1
6 52 1
52 14 1
12 88 1
88 12 1
12 89 1
89 12 1
12 90 1
90 91 1
91 92 1
92 91 1
91 14 1
14 93 1
93 91 1
91 94 1
94 12 1
9 23 1
23 91 1
9 95 1
95 69 1
14 91 1
91 96 1
96 82 1
82 12 1
12 96 1
96 69 1
12 52 1
12 47 1
9 96 1
96 97 1
97 98 1
98 99 1
99 100 1
100 12 1
91 76 1
75 9 1
76 91 1
91 6 1
6 56 1
52 36 1
36 101 1
101 2 1
8 36 1
6 39 1
29 3 1
3 8 1
6 36 1
29 102 1
102 39 1
36 14 1
69 91 1
91 77 1
12 103 1
103 12 1
69 104 1
104 52 1
9 56 1
56 39 1
39 56 1
56 9 1
47 105 1
105 9 1
47 56 1
55 47 1
39 106 1
106 47 1
47 23 1
9 107 1
107 9 1
12 101 1
101 6 1
47 45 1
46 27 1
27 46 1
46 108 1
108 2 1
2 109 1
109 14 1
69 52 1
52 13 1
13 91 1
91 110 1
110 45 1
36 45 1
36 111 1
111 112 1
112 6 1
45 39 1
39 6 1
3 7 1
8 91 1
12 113 1
113 91 1
12 36 1
36 112 1
112 114 1
114 39 1
39 17 1
17 69 1
9 115 1
115 116 1
116 36 1
36 117 1
117 52 1
14 118 1
118 119 1
119 118 1
118 121 1
121 118 1
118 91 1
91 116 1
116 6 1
101 45 1
45 17 1
17 20 1
20 29 1
29 14 1
14 116 1
116 46 1
46 23 1
23 6 1
47 48 1
48 36 1
36 17 1
17 14 1
101 122 1
122 101 1
101 8 1
9 123 1
123 124 1
124 75 1
76 23 1
23 125 1
125 9 1
86 12 1
91 75 1
75 91 1
91 29 1
27 45 1
45 2 1
3 46 1
46 2 1
2 47 1
47 127 1
