3 7 186
7 3 183
7 15 15
3 38 15
38 3 14
15 7 13
39 38 13
38 42 12
42 38 12
38 41 11
35 7 10
15 3 9
23 7 9
7 23 8
28 7 8
41 39 8
38 39 8
3 5 7
3 15 7
41 3 7
5 3 6
7 28 6
7 32 6
7 35 6
39 3 6
41 38 6
32 7 5
3 39 5
3 41 5
39 41 5
7 11 4
11 7 4
29 7 4
7 30 4
34 7 4
7 34 4
7 17 3
19 7 3
7 18 3
18 7 3
7 27 3
27 7 3
7 29 3
30 29 3
35 3 3
3 35 3
7 33 3
4 3 2
7 8 2
8 7 2
9 7 2
7 12 2
12 7 2
17 4 2
3 18 2
7 19 2
3 23 2
7 25 2
25 3 2
27 3 2
3 27 2
29 30 2
30 7 2
32 33 2
33 7 2
15 35 2
33 32 2
33 35 2
7 38 2
38 7 2
38 40 2
40 38 2
7 47 2
47 7 2
30 3 2
1 2 1
2 3 1
3 4 1
5 6 1
6 3 1
3 9 1
7 9 1
7 10 1
10 7 1
7 13 1
13 14 1
14 3 1
7 16 1
16 7 1
7 14 1
14 7 1
18 3 1
3 19 1
18 20 1
20 3 1
7 21 1
21 3 1
3 22 1
22 7 1
23 3 1
3 24 1
24 3 1
7 22 1
22 3 1
25 7 1
7 26 1
26 7 1
3 28 1
29 28 1
28 29 1
29 17 1
17 29 1
30 28 1
17 30 1
30 31 1
31 7 1
32 34 1
34 15 1
35 15 1
3 32 1
32 35 1
3 33 1
7 36 1
36 37 1
37 7 1
7 39 1
40 41 1
38 17 1
17 39 1
41 40 1
3 40 1
40 39 1
38 19 1
19 38 1
3 43 1
43 25 1
7 44 1
44 7 1
7 45 1
45 46 1
46 3 1
47 3 1
3 47 1
4 30 1
3 30 1
