3 15 31
15 3 30
10 9 21
9 10 19
18 12 15
12 18 15
21 12 14
12 21 14
20 15 12
15 20 12
19 5 10
5 19 10
5 7 9
7 5 9
9 24 9
15 24 8
26 24 8
24 26 8
24 9 8
20 3 7
3 20 7
24 18 7
18 24 7
5 17 6
24 13 6
13 24 6
24 15 6
17 5 4
3 4 3
5 6 3
6 5 3
13 5 3
5 13 3
16 5 3
18 15 3
3 24 3
4 3 2
5 9 2
5 16 2
16 13 2
13 16 2
17 13 2
9 5 2
12 3 2
24 3 2
24 12 2
5 24 2
1 2 1
2 3 1
4 5 1
7 8 1
8 5 1
10 11 1
11 12 1
12 11 1
11 13 1
13 14 1
14 12 1
12 14 1
14 15 1
15 10 1
9 16 1
16 17 1
17 16 1
13 17 1
13 18 1
15 19 1
19 9 1
9 20 1
20 21 1
21 3 1
15 21 1
21 22 1
22 10 1
17 23 1
23 7 1
7 12 1
24 25 1
25 26 1
26 15 1
15 7 1
5 18 1
18 25 1
25 24 1
24 27 1
27 18 1
3 28 1
28 21 1
21 10 1
9 18 1
24 10 1
10 24 1
24 29 1
29 5 1
3 9 1
24 5 1
12 5 1
5 3 1
