6 8 82
8 6 78
10 8 23
6 10 22
8 10 22
10 6 21
6 11 13
8 11 12
11 6 11
11 8 11
11 12 7
14 6 7
16 6 6
6 13 5
13 6 5
6 12 5
8 28 5
6 14 5
4 5 4
6 19 4
24 23 4
23 24 4
28 8 4
5 4 3
12 6 3
19 6 3
28 6 3
8 13 3
12 11 3
13 10 3
18 10 3
36 6 3
8 14 3
14 11 3
6 45 3
9 8 2
18 6 2
8 19 2
6 20 2
20 6 2
23 8 2
24 6 2
14 28 2
11 13 2
11 16 2
12 19 2
11 19 2
30 23 2
23 30 2
12 8 2
28 13 2
6 18 2
6 28 2
6 43 2
44 6 2
19 11 2
10 14 2
14 10 2
11 10 2
10 11 2
45 6 2
1 2 1
2 3 1
3 4 1
5 6 1
6 7 1
7 8 1
8 9 1
6 9 1
11 14 1
6 15 1
15 16 1
8 17 1
17 18 1
8 21 1
21 6 1
8 22 1
22 6 1
6 23 1
8 23 1
8 24 1
6 24 1
24 8 1
8 25 1
25 8 1
8 26 1
26 27 1
27 16 1
13 14 1
13 16 1
8 29 1
29 8 1
19 14 1
19 16 1
13 11 1
13 8 1
16 18 1
18 28 1
28 11 1
19 12 1
19 18 1
18 11 1
11 28 1
28 30 1
30 31 1
31 24 1
16 8 1
6 32 1
32 8 1
10 33 1
33 10 1
8 34 1
34 6 1
6 16 1
19 8 1
10 13 1
13 28 1
10 35 1
35 18 1
10 16 1
16 10 1
10 36 1
6 22 1
22 8 1
8 16 1
10 18 1
10 20 1
20 37 1
37 38 1
38 19 1
19 20 1
6 39 1
39 6 1
10 40 1
40 41 1
41 42 1
42 6 1
8 18 1
18 8 1
43 6 1
43 36 1
14 8 1
10 28 1
8 36 1
12 44 1
14 45 1
45 14 1
8 44 1
28 19 1
8 46 1
46 8 1
12 14 1
11 44 1
44 8 1
28 14 1
19 28 1
28 20 1
20 14 1
6 47 1
47 11 1
14 44 1
44 10 1
12 10 1
10 48 1
48 49 1
49 8 1
45 11 1
20 8 1
8 50 1
50 8 1
