28 17 29
17 28 26
9 34 11
34 9 10
10 28 9
2 3 8
11 27 8
28 10 8
9 11 7
15 10 7
10 17 7
10 15 7
27 11 7
15 28 7
3 2 6
11 9 6
17 10 6
19 10 6
10 19 6
11 25 6
17 15 5
25 11 5
12 35 5
16 10 4
28 15 4
35 9 4
35 12 4
34 35 4
27 51 4
15 16 3
19 15 3
15 19 3
11 15 3
9 13 3
12 9 3
9 12 3
12 34 3
35 34 3
11 34 3
51 27 3
4 5 2
12 13 2
10 16 2
20 11 2
10 11 2
11 16 2
16 11 2
15 11 2
17 16 2
15 17 2
9 35 2
13 9 2
34 12 2
9 39 2
39 9 2
9 40 2
40 9 2
34 11 2
1 2 1
3 4 1
5 4 1
5 2 1
2 6 1
6 7 1
7 8 1
8 9 1
9 10 1
10 9 1
11 12 1
13 14 1
14 15 1
16 17 1
16 18 1
18 19 1
19 17 1
17 19 1
19 16 1
16 19 1
19 20 1
11 20 1
11 21 1
21 22 1
22 10 1
11 10 1
11 23 1
23 24 1
24 11 1
25 26 1
26 11 1
27 25 1
25 17 1
16 15 1
17 11 1
17 29 1
29 17 1
28 30 1
30 17 1
17 31 1
31 29 1
29 32 1
32 33 1
33 9 1
13 36 1
36 12 1
34 37 1
37 12 1
13 12 1
12 15 1
15 12 1
34 13 1
13 35 1
9 38 1
38 9 1
9 41 1
41 9 1
9 42 1
42 11 1
35 11 1
11 43 1
43 44 1
44 45 1
45 43 1
43 27 1
27 46 1
46 27 1
27 47 1
47 24 1
24 27 1
27 48 1
48 27 1
27 49 1
49 50 1
50 27 1
51 52 1
52 53 1
53 4 1
4 2 1
3 25 1
