4 7 43
7 4 41
23 7 9
4 17 8
7 23 8
7 30 7
5 4 6
15 7 6
17 4 6
4 5 5
8 4 5
7 15 5
30 7 5
4 39 5
7 8 4
4 8 4
14 4 4
7 26 4
26 7 4
5 7 4
8 7 3
4 14 3
15 4 3
4 15 3
18 4 3
7 24 3
7 5 3
30 4 3
39 4 3
39 7 3
7 39 3
6 7 2
10 4 2
4 10 2
7 14 2
7 19 2
19 4 2
4 19 2
19 18 2
22 4 2
24 23 2
24 7 2
4 26 2
26 4 2
17 29 2
29 17 2
32 5 2
7 21 2
39 40 2
1 2 1
2 1 1
1 3 1
3 4 1
4 6 1
7 6 1
4 9 1
9 7 1
7 10 1
4 11 1
11 4 1
10 7 1
7 11 1
11 7 1
7 12 1
12 7 1
7 13 1
13 14 1
14 7 1
14 15 1
4 16 1
16 4 1
17 18 1
18 7 1
4 20 1
20 19 1
19 21 1
21 4 1
4 22 1
4 21 1
21 20 1
20 22 1
7 25 1
25 7 1
23 24 1
17 7 1
7 27 1
27 17 1
4 28 1
28 4 1
7 28 1
28 7 1
7 17 1
17 30 1
4 30 1
30 31 1
31 7 1
4 32 1
7 33 1
33 5 1
5 32 1
32 7 1
7 32 1
4 34 1
34 4 1
4 35 1
35 4 1
4 36 1
36 4 1
21 7 1
21 18 1
18 19 1
4 18 1
17 37 1
37 38 1
38 7 1
7 38 1
38 37 1
37 7 1
19 7 1
40 4 1
40 39 1
39 34 1
34 7 1
