6 5 23
5 6 21
5 19 13
19 5 13
7 8 12
6 11 11
11 6 11
8 7 11
6 26 10
17 5 9
5 17 9
26 6 9
13 6 8
7 6 8
6 13 7
6 7 7
5 7 6
8 6 5
5 8 5
8 5 5
5 20 5
20 5 5
3 5 4
5 3 4
7 5 4
6 8 4
11 5 3
3 4 2
5 9 2
9 5 2
12 11 2
6 17 2
17 6 2
5 11 2
5 21 2
21 5 2
7 27 2
28 7 2
7 28 2
1 2 1
2 3 1
4 3 1
4 5 1
6 9 1
9 6 1
6 10 1
10 6 1
5 10 1
10 5 1
11 12 1
6 14 1
14 15 1
15 16 1
16 7 1
17 11 1
11 17 1
5 18 1
18 13 1
6 12 1
12 6 1
11 13 1
13 12 1
21 20 1
20 21 1
5 13 1
13 11 1
5 22 1
22 5 1
20 6 1
6 20 1
5 23 1
23 5 1
5 24 1
24 5 1
5 25 1
25 6 1
26 5 1
27 28 1
28 8 1
27 7 1
