9 3 115
3 9 113
26 3 47
3 26 39
3 24 25
3 33 24
33 3 24
24 3 23
3 34 19
40 41 19
41 40 16
34 3 15
9 26 14
29 24 12
24 29 12
3 17 11
17 3 10
26 9 10
6 7 9
8 6 8
3 4 7
7 8 7
25 26 7
26 25 7
4 3 6
3 6 6
33 39 6
39 33 6
7 6 5
6 3 5
6 19 5
34 33 5
35 7 5
7 35 5
6 8 4
14 15 4
19 3 4
19 6 4
3 35 4
35 3 4
9 35 4
35 9 4
3 38 4
38 3 4
48 41 4
3 41 4
40 3 4
41 50 4
8 7 3
15 14 3
33 40 3
40 42 3
42 41 3
41 42 3
42 40 3
41 46 3
3 7 3
41 3 3
7 30 3
30 7 3
50 41 3
9 10 2
10 9 2
14 9 2
3 14 2
3 19 2
24 9 2
33 34 2
30 29 2
46 30 2
30 46 2
7 26 2
33 41 2
41 33 2
3 40 2
3 50 2
50 3 2
34 40 2
34 9 2
26 34 2
34 41 2
41 34 2
41 9 2
54 26 2
50 48 2
55 30 2
1 2 1
2 3 1
4 5 1
5 6 1
6 9 1
3 11 1
11 9 1
3 12 1
12 3 1
3 13 1
13 14 1
9 14 1
14 3 1
15 9 1
3 16 1
16 3 1
3 18 1
18 19 1
3 20 1
20 3 1
3 21 1
21 9 1
9 22 1
22 23 1
23 3 1
3 25 1
25 3 1
9 24 1
24 26 1
26 27 1
27 28 1
28 29 1
29 30 1
30 31 1
31 26 1
3 32 1
32 26 1
26 33 1
3 36 1
36 3 1
3 37 1
37 3 1
42 43 1
43 42 1
41 29 1
29 44 1
44 29 1
29 45 1
45 30 1
29 40 1
29 3 1
3 47 1
47 3 1
26 40 1
40 33 1
33 48 1
41 26 1
33 26 1
7 49 1
49 33 1
33 49 1
49 3 1
33 50 1
50 34 1
3 30 1
46 51 1
51 30 1
30 3 1
9 34 1
34 26 1
41 52 1
52 17 1
17 53 1
53 40 1
40 49 1
49 34 1
50 26 1
34 49 1
49 50 1
34 48 1
48 30 1
30 48 1
48 46 1
46 52 1
52 3 1
17 33 1
40 34 1
9 54 1
26 54 1
26 30 1
30 41 1
46 41 1
46 48 1
48 50 1
41 48 1
9 55 1
30 55 1
30 9 1
