5 6 33
6 5 32
6 7 26
7 6 26
8 5 18
5 8 18
18 5 13
5 18 11
4 5 10
5 12 10
12 5 10
5 4 9
15 8 7
15 4 7
8 15 6
4 15 5
8 11 4
11 8 4
12 13 4
13 12 4
6 12 3
6 19 3
5 7 3
4 24 3
10 9 2
11 5 2
5 11 2
5 19 2
19 5 2
19 20 2
20 6 2
12 18 2
7 5 2
7 22 2
7 23 2
23 7 2
24 4 2
1 2 1
2 3 1
3 4 1
7 8 1
8 9 1
9 10 1
9 5 1
13 6 1
5 14 1
14 12 1
12 6 1
12 10 1
9 15 1
8 16 1
16 17 1
17 6 1
6 18 1
18 6 1
19 6 1
5 21 1
21 6 1
22 7 1
22 23 1
12 15 1
24 15 1
4 8 1
8 7 1
6 23 1
23 6 1
23 13 1
6 9 1
9 25 1
25 9 1
9 12 1
