18 11 24
11 18 21
37 32 17
32 37 17
13 14 11
14 13 10
8 10 9
11 12 9
30 31 9
10 8 8
11 20 8
33 10 8
10 33 8
12 11 7
20 11 7
31 30 7
22 23 6
22 30 6
20 17 6
17 20 6
2 3 5
16 17 5
23 22 5
23 32 5
30 22 5
11 2 5
17 16 4
28 29 4
29 28 4
32 23 4
12 18 3
18 20 3
34 11 3
11 34 3
3 11 3
2 11 3
36 32 3
20 18 3
11 39 3
3 6 2
10 9 2
9 10 2
18 12 2
19 18 2
18 22 2
34 20 2
20 34 2
34 18 2
32 36 2
36 37 2
37 36 2
39 11 2
39 18 2
41 11 2
1 2 1
3 4 1
4 2 1
2 4 1
4 3 1
3 2 1
3 5 1
5 3 1
6 2 1
6 7 1
7 8 1
8 9 1
9 8 1
10 11 1
11 13 1
14 15 1
15 14 1
14 16 1
17 11 1
12 19 1
19 11 1
20 21 1
21 11 1
11 21 1
21 19 1
20 19 1
23 24 1
24 22 1
22 25 1
25 26 1
26 27 1
27 25 1
25 28 1
28 23 1
23 25 1
25 29 1
29 24 1
24 30 1
31 23 1
32 13 1
13 33 1
33 34 1
18 34 1
31 35 1
35 11 1
11 3 1
11 36 1
32 11 1
11 17 1
17 38 1
38 20 1
11 19 1
19 39 1
18 39 1
39 40 1
40 18 1
18 40 1
40 11 1
11 40 1
40 36 1
36 11 1
11 41 1
11 42 1
42 41 1
