11 4 23
6 7 17
7 6 17
4 11 16
4 21 15
10 11 14
21 4 14
8 6 13
4 14 13
18 24 13
31 36 13
36 31 13
6 8 12
24 18 12
11 30 12
11 10 12
14 4 11
30 11 11
5 4 10
4 35 10
4 5 9
6 23 9
15 4 8
4 15 8
35 4 8
20 39 8
13 4 7
11 16 7
16 11 7
4 13 7
23 22 7
7 25 7
25 7 7
24 30 7
30 24 7
23 6 7
39 20 7
22 23 6
7 9 6
9 7 6
31 16 6
16 31 6
20 19 6
14 11 5
17 11 5
4 17 5
17 4 5
19 20 5
11 17 4
21 11 4
35 11 4
23 8 4
3 4 3
4 3 3
14 15 3
15 14 3
19 18 3
13 21 3
21 13 3
27 28 3
30 4 3
11 35 3
22 16 3
16 22 3
11 37 3
8 23 3
38 20 3
6 9 2
9 6 2
11 12 2
12 11 2
11 13 2
13 11 2
15 11 2
11 15 2
11 14 2
18 19 2
12 4 2
21 15 2
15 21 2
28 27 2
26 27 2
4 30 2
11 21 2
37 11 2
38 19 2
19 38 2
39 38 2
1 2 1
2 3 1
3 5 1
4 6 1
6 10 1
4 18 1
18 6 1
8 20 1
20 12 1
4 12 1
11 22 1
22 18 1
24 22 1
22 24 1
18 7 1
7 21 1
21 26 1
26 15 1
15 27 1
27 26 1
28 26 1
27 29 1
29 27 1
27 15 1
15 26 1
26 11 1
4 24 1
24 31 1
31 32 1
32 33 1
33 32 1
32 34 1
34 4 1
4 34 1
34 17 1
35 14 1
4 22 1
22 31 1
31 23 1
23 36 1
36 23 1
22 21 1
4 10 1
37 8 1
23 20 1
24 38 1
20 38 1
19 39 1
38 39 1
39 19 1
20 7 1
7 4 1
