4 5 14
13 10 14
10 13 13
18 15 12
15 18 12
5 4 11
20 19 10
20 4 10
4 20 10
16 14 9
19 20 9
6 8 8
6 15 8
15 6 8
8 6 7
14 16 7
15 25 7
25 15 7
28 23 7
30 20 7
23 5 6
23 28 6
20 30 6
9 10 5
5 23 5
19 30 5
5 8 4
10 9 4
14 15 4
27 4 4
30 19 4
8 5 3
4 27 3
5 27 3
2 4 2
4 2 2
2 5 2
15 14 2
16 24 2
24 16 2
27 23 2
23 27 2
27 5 2
2 27 2
1 2 1
2 3 1
3 2 1
5 2 1
5 6 1
6 5 1
5 7 1
7 6 1
6 4 1
8 9 1
10 11 1
11 12 1
12 13 1
10 14 1
15 16 1
14 17 1
17 14 1
14 18 1
18 10 1
10 5 1
5 12 1
12 5 1
5 10 1
10 19 1
20 21 1
21 22 1
22 13 1
13 22 1
22 21 1
21 13 1
13 21 1
21 6 1
8 23 1
5 16 1
14 24 1
24 14 1
15 26 1
26 20 1
20 27 1
27 28 1
23 29 1
29 2 1
27 2 1
27 20 1
19 4 1
5 14 1
14 30 1
