2 11 19
11 2 19
19 20 14
20 19 13
24 2 13
2 24 12
2 3 11
3 2 11
13 14 10
14 13 10
26 16 10
8 9 9
16 26 9
9 8 8
16 17 8
17 16 8
2 7 7
2 19 7
19 2 7
7 2 6
2 10 6
8 10 5
27 2 5
2 27 5
16 7 5
7 16 5
10 8 4
10 2 4
12 11 4
22 2 4
10 23 4
24 25 4
25 24 4
10 3 4
13 11 4
11 13 4
11 12 3
3 22 3
22 3 3
2 22 3
23 10 3
11 22 3
3 4 2
4 2 2
18 2 2
2 18 2
22 11 2
2 20 2
20 2 2
3 24 2
3 25 2
25 2 2
27 3 2
3 27 2
28 29 2
8 3 2
3 10 2
32 2 2
2 32 2
21 33 2
33 21 2
11 14 2
14 11 2
1 2 1
4 5 1
5 3 1
2 6 1
6 2 1
7 8 1
2 5 1
5 2 1
2 4 1
2 12 1
11 9 1
9 13 1
13 15 1
15 16 1
17 18 1
18 3 1
3 18 1
18 19 1
20 21 1
21 20 1
20 3 1
22 4 1
4 22 1
23 11 1
25 3 1
2 25 1
24 26 1
26 3 1
2 26 1
16 27 1
27 28 1
29 28 1
29 13 1
13 29 1
29 16 1
16 30 1
30 31 1
31 30 1
30 8 1
2 8 1
3 8 1
8 2 1
3 32 1
32 21 1
21 8 1
9 17 1
16 13 1
13 20 1
