7 10 42
10 7 38
15 7 34
7 15 34
12 7 31
7 12 30
10 15 11
3 7 10
15 10 10
7 3 7
15 21 7
21 15 7
11 7 5
7 11 5
18 7 5
17 7 4
7 17 4
7 18 4
15 16 4
16 15 4
15 12 4
23 7 4
7 23 4
25 7 4
33 7 4
7 8 3
12 10 3
10 12 3
12 15 3
7 25 3
7 33 3
7 37 3
40 41 3
8 7 2
7 20 2
10 3 2
7 24 2
10 25 2
26 15 2
15 26 2
29 15 2
25 10 2
37 7 2
41 40 2
15 42 2
1 2 1
2 3 1
3 4 1
4 5 1
5 6 1
6 3 1
8 9 1
9 10 1
10 11 1
11 12 1
7 13 1
13 14 1
14 15 1
15 14 1
14 16 1
16 17 1
17 18 1
7 19 1
19 7 1
20 7 1
20 10 1
10 13 1
13 15 1
15 22 1
22 15 1
10 23 1
24 7 1
24 10 1
10 24 1
24 25 1
12 26 1
26 27 1
27 10 1
10 28 1
28 29 1
15 30 1
30 29 1
29 31 1
31 7 1
23 31 1
31 32 1
32 12 1
12 33 1
7 34 1
34 10 1
10 35 1
35 15 1
15 36 1
36 7 1
37 15 1
15 29 1
29 38 1
38 29 1
29 39 1
39 29 1
29 40 1
41 29 1
29 7 1
42 15 1
42 43 1
43 29 1
