1 2 102
2 1 96
2 6 46
6 2 43
13 2 26
2 13 25
4 2 13
2 4 12
6 1 9
2 22 9
3 2 8
6 4 8
4 6 8
2 30 8
2 3 7
2 7 7
2 21 7
22 2 7
7 2 6
1 6 6
18 13 6
6 13 6
21 2 6
25 2 6
2 25 6
30 2 6
7 4 5
4 7 5
12 2 5
13 18 5
13 1 5
2 15 4
15 2 4
13 6 4
1 22 4
2 24 4
24 2 4
8 2 3
2 12 3
1 13 3
2 20 3
20 2 3
2 23 3
3 4 2
4 3 2
2 8 2
4 10 2
10 4 2
1 17 2
17 1 2
1 18 2
23 2 2
2 26 2
30 1 2
22 1 2
2 5 1
5 4 1
2 9 1
9 4 1
4 8 1
2 11 1
11 2 1
13 12 1
7 12 1
12 14 1
14 12 1
12 6 1
6 12 1
1 16 1
16 1 1
2 17 1
17 2 1
2 18 1
13 7 1
7 19 1
19 2 1
2 10 1
10 6 1
21 1 1
18 1 1
18 2 1
22 23 1
23 1 1
23 24 1
24 25 1
25 13 1
22 13 1
26 2 1
26 1 1
13 27 1
27 13 1
1 28 1
28 2 1
13 28 1
28 3 1
1 29 1
29 13 1
22 31 1
31 2 1
22 6 1
