5 9 62
9 5 55
9 10 41
10 9 31
10 5 23
12 5 21
11 9 19
5 12 19
5 10 18
9 11 16
13 12 16
11 5 15
12 13 14
10 11 12
5 11 11
4 3 9
3 4 8
5 20 7
11 10 6
9 13 5
20 5 5
13 9 4
20 9 4
15 10 3
9 20 3
24 12 3
12 24 3
2 3 2
4 5 2
5 3 2
5 4 2
7 8 2
8 7 2
5 13 2
10 15 2
9 12 2
1 2 1
3 2 1
3 5 1
3 6 1
6 4 1
3 7 1
7 9 1
9 3 1
3 9 1
12 10 1
10 13 1
13 11 1
11 12 1
12 9 1
13 5 1
12 14 1
14 11 1
11 15 1
15 11 1
11 14 1
14 15 1
11 16 1
16 14 1
14 12 1
12 17 1
17 12 1
12 18 1
18 9 1
10 19 1
19 10 1
20 10 1
10 20 1
20 11 1
9 21 1
21 9 1
9 22 1
22 11 1
5 23 1
23 5 1
13 24 1
24 13 1
13 14 1
14 13 1
12 15 1
15 12 1
9 25 1
25 9 1
5 26 1
26 5 1
3 27 1
27 28 1
