12 9 28
9 12 26
18 12 24
12 18 20
28 20 15
10 20 13
20 28 13
20 10 12
9 20 12
36 1 10
20 9 10
1 36 8
20 22 7
12 30 7
30 12 7
9 42 7
42 9 7
22 20 6
15 16 5
16 15 5
21 22 5
23 24 5
24 23 5
9 28 5
10 9 4
15 17 4
12 28 4
31 28 4
32 31 4
1 35 4
2 9 4
1 7 3
7 1 3
1 8 3
8 1 3
1 9 3
9 10 3
13 9 3
9 1 3
15 2 3
2 15 3
17 15 3
28 12 3
28 32 3
1 28 3
35 1 3
2 12 3
9 2 3
28 9 3
18 28 3
12 13 3
1 2 2
9 13 2
9 14 2
14 9 2
12 19 2
19 12 2
12 1 2
20 21 2
22 21 2
23 1 2
1 23 2
25 1 2
12 20 2
18 29 2
29 18 2
28 1 2
35 36 2
1 37 2
12 2 2
28 18 2
20 12 2
34 10 2
29 12 2
42 12 2
9 34 2
34 9 2
2 1 1
1 3 1
3 4 1
4 5 1
5 3 1
3 1 1
1 6 1
6 1 1
9 11 1
11 9 1
1 15 1
17 18 1
1 10 1
22 10 1
21 20 1
22 23 1
23 25 1
1 26 1
26 27 1
27 26 1
26 18 1
20 18 1
28 31 1
31 32 1
28 21 1
22 18 1
30 21 1
22 28 1
28 33 1
33 28 1
28 30 1
30 22 1
22 12 1
1 18 1
18 30 1
30 15 1
15 30 1
12 7 1
7 34 1
34 1 1
37 36 1
37 1 1
36 35 1
2 10 1
10 11 1
11 2 1
28 2 1
28 38 1
38 2 1
2 38 1
38 39 1
39 40 1
40 41 1
41 34 1
34 39 1
39 12 1
12 34 1
34 18 1
9 4 1
4 9 1
9 43 1
43 44 1
44 12 1
12 10 1
20 45 1
45 9 1
9 46 1
46 9 1
9 47 1
47 9 1
20 1 1
13 20 1
20 34 1
10 34 1
10 29 1
12 29 1
13 12 1
12 42 1
9 33 1
33 42 1
10 25 1
1 48 1
48 49 1
49 1 1
