3 9 30
9 3 27
8 3 23
3 8 21
3 10 21
10 3 18
37 3 15
3 21 13
16 3 12
21 3 12
3 37 12
17 21 10
3 15 9
3 16 9
24 25 9
21 17 9
17 30 8
25 24 8
13 3 7
15 3 7
7 3 6
30 17 6
11 3 5
3 13 5
3 7 5
3 41 5
11 12 4
12 3 4
3 11 4
10 8 4
21 8 4
12 11 4
25 6 4
55 17 4
3 5 3
5 6 3
8 9 3
3 12 3
9 15 3
15 9 3
3 17 3
34 17 3
41 3 3
3 45 3
17 55 3
9 10 2
9 11 2
7 16 2
7 17 2
10 17 2
17 3 2
10 7 2
7 20 2
20 7 2
21 9 2
9 21 2
23 24 2
10 13 2
9 8 2
17 24 2
17 25 2
25 17 2
6 25 2
6 24 2
17 34 2
8 13 2
9 25 2
41 37 2
3 43 2
45 3 2
15 10 2
39 43 2
43 39 2
21 24 2
24 21 2
6 12 2
1 2 1
2 3 1
3 4 1
4 3 1
6 7 1
7 5 1
5 7 1
3 14 1
14 3 1
15 7 1
16 17 1
17 7 1
17 16 1
16 7 1
7 18 1
18 19 1
19 3 1
9 18 1
18 3 1
3 18 1
18 10 1
7 10 1
7 19 1
19 21 1
21 16 1
8 21 1
3 22 1
22 3 1
8 23 1
24 23 1
23 25 1
25 26 1
26 23 1
24 9 1
10 9 1
10 12 1
11 10 1
8 10 1
3 27 1
27 3 1
3 28 1
28 8 1
6 9 1
9 16 1
17 29 1
29 17 1
24 17 1
24 13 1
13 10 1
13 21 1
17 31 1
31 17 1
21 32 1
32 17 1
17 33 1
33 17 1
21 34 1
34 30 1
30 34 1
34 13 1
8 35 1
35 36 1
36 35 1
35 3 1
13 25 1
25 9 1
25 3 1
5 32 1
32 37 1
37 38 1
38 37 1
37 6 1
6 3 1
8 39 1
39 40 1
40 3 1
8 37 1
37 8 1
3 42 1
42 3 1
43 44 1
44 39 1
39 37 1
37 43 1
43 3 1
45 37 1
3 46 1
46 17 1
30 47 1
47 21 1
3 34 1
17 48 1
48 47 1
47 10 1
17 8 1
17 47 1
47 11 1
11 49 1
49 5 1
6 11 1
11 50 1
50 7 1
7 32 1
32 7 1
3 51 1
51 3 1
10 15 1
9 52 1
52 9 1
24 3 1
3 53 1
53 21 1
3 54 1
54 17 1
17 56 1
56 57 1
57 55 1
17 58 1
58 59 1
59 21 1
21 41 1
41 39 1
43 60 1
60 3 1
13 55 1
55 3 1
39 51 1
51 6 1
6 8 1
8 61 1
61 21 1
24 7 1
30 6 1
12 62 1
62 63 1
63 24 1
21 44 1
44 6 1
12 64 1
64 6 1
6 65 1
