5 9 30
9 5 27
7 5 22
5 7 21
18 5 16
12 5 15
5 12 15
5 18 15
4 5 10
5 4 10
13 5 7
7 8 6
8 7 6
5 13 6
10 7 5
9 18 5
12 7 4
8 5 3
5 8 3
7 9 3
9 12 3
7 10 3
13 15 3
15 13 3
18 9 3
7 22 3
22 7 3
7 23 3
23 7 3
7 12 3
9 7 2
13 14 2
14 13 2
15 16 2
13 9 2
13 19 2
19 13 2
24 9 2
9 24 2
1 2 1
2 3 1
3 4 1
5 6 1
6 5 1
4 7 1
9 10 1
5 11 1
11 5 1
7 13 1
16 13 1
13 17 1
17 15 1
16 15 1
18 13 1
9 13 1
13 12 1
12 13 1
13 20 1
20 13 1
9 21 1
21 4 1
4 9 1
5 10 1
5 24 1
24 5 1
12 9 1
12 10 1
10 12 1
7 25 1
25 5 1
12 18 1
18 26 1
