1 5 50
5 1 48
6 10 29
10 6 27
1 6 14
14 13 14
6 1 13
13 14 13
5 10 11
10 5 11
33 1 7
1 3 6
3 1 6
42 5 6
1 33 5
5 42 5
9 1 4
14 17 3
1 9 3
1 39 3
39 1 3
1 4 2
4 1 2
6 8 2
8 6 2
13 16 2
16 14 2
17 14 2
5 14 2
17 7 2
30 1 2
5 33 2
5 9 2
1 2 1
2 1 1
6 7 1
7 6 1
6 9 1
9 6 1
10 11 1
11 6 1
6 5 1
5 6 1
6 12 1
12 1 1
5 13 1
14 15 1
15 14 1
14 5 1
14 18 1
18 17 1
7 14 1
14 19 1
19 14 1
13 5 1
17 13 1
13 17 1
7 18 1
18 14 1
14 20 1
20 21 1
21 13 1
14 22 1
22 6 1
10 23 1
23 24 1
24 25 1
25 26 1
26 25 1
25 5 1
10 27 1
27 10 1
10 28 1
28 29 1
29 30 1
30 31 1
31 10 1
5 32 1
32 33 1
1 34 1
34 30 1
1 35 1
35 5 1
5 36 1
36 30 1
1 37 1
37 5 1
5 37 1
37 38 1
38 5 1
33 5 1
5 39 1
39 40 1
40 5 1
5 41 1
41 5 1
9 42 1
1 43 1
