19 15 22
15 18 17
23 25 17
25 23 17
18 15 15
15 19 15
15 23 13
15 39 10
39 15 10
20 19 9
23 15 9
26 15 7
28 15 7
19 42 7
42 19 7
15 16 6
19 20 6
15 26 6
15 28 6
16 15 5
19 26 5
14 15 4
15 21 4
27 15 4
15 31 4
31 15 4
23 19 4
28 27 4
26 41 4
8 9 3
15 10 3
16 19 3
15 9 3
24 23 3
10 15 3
27 28 3
15 14 3
41 26 3
25 24 3
24 25 3
9 8 2
13 14 2
21 22 2
19 16 2
23 24 2
15 27 2
26 19 2
26 14 2
14 20 2
33 20 2
14 19 2
1 2 1
2 3 1
3 4 1
4 5 1
5 6 1
6 7 1
7 8 1
9 10 1
10 11 1
11 12 1
12 11 1
11 13 1
15 17 1
17 15 1
10 19 1
22 15 1
9 23 1
23 13 1
13 19 1
19 10 1
21 15 1
21 19 1
23 27 1
28 14 1
14 29 1
29 30 1
30 27 1
9 12 1
12 15 1
27 20 1
26 32 1
32 26 1
26 28 1
15 13 1
14 28 1
26 21 1
22 19 1
19 28 1
15 29 1
29 33 1
20 33 1
33 13 1
13 34 1
34 14 1
26 20 1
20 23 1
23 26 1
26 33 1
33 26 1
19 33 1
20 26 1
15 35 1
35 26 1
21 13 1
13 36 1
36 15 1
19 14 1
14 37 1
37 23 1
23 14 1
19 13 1
13 38 1
38 15 1
16 18 1
18 16 1
18 23 1
23 40 1
40 24 1
24 35 1
35 24 1
23 35 1
35 23 1
25 10 1
10 29 1
29 26 1
41 39 1
39 19 1
18 25 1
25 35 1
35 25 1
9 43 1
43 44 1
