3 12 17
12 3 15
15 16 14
12 40 14
3 7 13
16 15 13
40 12 13
17 15 11
7 3 10
34 35 10
35 34 10
7 12 9
15 17 9
12 7 9
6 12 6
38 15 6
3 40 6
40 3 6
7 5 5
5 7 5
7 6 5
16 17 5
19 12 5
12 6 5
15 38 5
7 19 5
4 3 4
6 7 4
17 16 4
35 26 4
26 35 4
41 15 4
15 41 4
3 4 3
5 3 3
19 3 3
12 19 3
19 7 3
3 5 2
18 3 2
3 18 2
12 4 2
21 22 2
27 22 2
36 35 2
38 17 2
17 38 2
19 39 2
39 19 2
3 19 2
6 40 2
40 5 2
5 40 2
40 16 2
16 40 2
1 2 1
2 3 1
3 6 1
7 8 1
8 9 1
9 8 1
8 3 1
3 10 1
10 5 1
6 3 1
3 11 1
11 3 1
12 8 1
8 13 1
13 8 1
8 14 1
14 3 1
3 15 1
15 18 1
18 19 1
3 20 1
20 12 1
12 21 1
22 21 1
22 23 1
23 24 1
24 12 1
12 25 1
25 12 1
12 26 1
26 27 1
22 27 1
22 28 1
28 27 1
27 29 1
29 27 1
27 30 1
30 31 1
31 30 1
30 8 1
8 32 1
32 33 1
33 34 1
34 6 1
12 36 1
35 36 1
35 12 1
12 37 1
37 26 1
26 15 1
15 30 1
30 3 1
7 38 1
15 12 1
4 12 1
6 17 1
15 3 1
12 41 1
41 17 1
17 7 1
40 6 1
40 42 1
42 12 1
12 5 1
5 12 1
40 43 1
43 44 1
44 45 1
45 16 1
16 7 1
12 42 1
42 6 1
12 15 1
41 46 1
46 41 1
15 46 1
46 15 1
15 7 1
