10 5 26
5 10 22
38 40 20
40 38 18
40 25 10
25 40 8
3 40 6
12 5 4
40 3 4
40 72 4
5 12 3
26 5 3
5 26 3
34 5 3
5 34 3
40 5 3
45 10 3
25 5 3
34 26 3
26 34 3
72 40 3
5 16 2
16 17 2
17 16 2
25 26 2
40 45 2
40 10 2
10 40 2
5 40 2
16 40 2
25 10 2
10 16 2
86 40 2
72 90 2
1 2 1
2 3 1
3 4 1
4 5 1
5 6 1
6 7 1
7 8 1
8 9 1
9 10 1
5 11 1
11 10 1
5 13 1
13 14 1
14 5 1
5 15 1
15 10 1
16 18 1
18 16 1
16 5 1
5 19 1
19 5 1
5 20 1
20 21 1
21 22 1
22 12 1
12 22 1
22 23 1
23 24 1
24 25 1
26 27 1
27 26 1
26 28 1
28 29 1
29 30 1
30 28 1
28 25 1
25 31 1
31 25 1
25 32 1
32 5 1
5 33 1
33 34 1
5 35 1
35 28 1
28 36 1
36 34 1
34 37 1
37 38 1
38 39 1
39 40 1
40 41 1
41 40 1
40 42 1
42 38 1
25 12 1
12 38 1
40 43 1
43 40 1
40 44 1
44 38 1
5 3 1
5 46 1
46 40 1
5 41 1
41 5 1
5 47 1
47 10 1
10 48 1
48 49 1
49 50 1
50 5 1
10 27 1
27 10 1
10 51 1
51 25 1
25 52 1
52 53 1
53 54 1
54 25 1
5 55 1
55 10 1
10 56 1
56 10 1
10 57 1
57 25 1
5 25 1
25 58 1
58 25 1
25 45 1
10 59 1
59 10 1
5 60 1
60 5 1
34 61 1
61 40 1
40 62 1
62 25 1
25 63 1
63 64 1
64 65 1
65 25 1
26 66 1
66 67 1
67 68 1
68 12 1
40 69 1
69 40 1
40 70 1
70 40 1
40 71 1
71 40 1
38 10 1
10 72 1
38 3 1
40 73 1
73 3 1
3 38 1
40 56 1
56 40 1
10 74 1
74 5 1
5 75 1
75 38 1
38 5 1
5 76 1
76 38 1
38 54 1
54 10 1
10 25 1
10 77 1
77 16 1
16 45 1
45 78 1
78 79 1
79 16 1
16 80 1
80 10 1
16 81 1
81 27 1
27 82 1
82 27 1
27 53 1
53 25 1
25 72 1
72 25 1
25 44 1
44 83 1
83 40 1
40 84 1
84 40 1
40 52 1
52 85 1
85 86 1
72 87 1
87 72 1
40 86 1
40 88 1
88 40 1
40 89 1
89 29 1
29 40 1
90 91 1
91 34 1
34 92 1
92 12 1
12 92 1
92 50 1
50 93 1
93 94 1
94 92 1
92 40 1
90 78 1
78 45 1
45 16 1
16 25 1
25 95 1
95 25 1
10 34 1
34 25 1
25 96 1
96 45 1
45 97 1
97 7 1
7 98 1
98 99 1
99 10 1
16 100 1
100 101 1
101 5 1
5 102 1
102 103 1
103 16 1
