2 3 14
4 5 14
5 4 14
10 3 12
3 2 12
3 4 12
4 3 12
14 20 12
20 14 12
3 10 11
21 2 11
24 10 11
10 24 11
2 21 9
7 2 8
3 7 8
1 3 7
11 10 7
10 25 7
25 10 7
3 1 6
2 7 6
10 11 6
7 3 6
31 10 6
10 31 6
7 13 5
13 7 5
24 25 5
31 32 5
1 2 4
7 14 4
7 21 4
25 24 4
2 1 3
3 8 3
14 7 3
3 14 3
14 17 3
21 3 3
5 30 3
30 5 3
32 31 3
10 12 3
34 17 3
17 34 3
1 4 2
8 1 2
3 5 2
3 11 2
11 3 2
14 13 2
13 17 2
14 3 2
17 7 2
7 15 2
15 7 2
17 20 2
20 17 2
17 14 2
14 6 2
6 14 2
3 21 2
32 10 2
12 10 2
31 35 2
4 6 1
6 7 1
2 8 1
8 9 1
9 3 1
8 3 1
5 10 1
5 12 1
12 3 1
4 2 1
13 14 1
13 15 1
15 16 1
16 13 1
17 3 1
3 18 1
18 3 1
3 19 1
19 13 1
13 3 1
3 15 1
15 3 1
14 15 1
15 14 1
2 22 1
22 2 1
2 6 1
6 2 1
21 7 1
2 23 1
23 7 1
2 24 1
25 11 1
11 26 1
26 10 1
10 27 1
27 11 1
10 15 1
15 17 1
14 28 1
28 15 1
15 13 1
17 13 1
13 29 1
29 5 1
5 1 1
4 31 1
32 33 1
33 31 1
10 32 1
12 34 1
34 14 1
2 4 1
3 31 1
35 31 1
35 36 1
36 34 1
34 37 1
37 17 1
17 10 1
10 35 1
35 4 1
