12 7 18
7 12 17
12 10 13
10 12 12
45 12 12
12 45 12
7 5 10
12 19 10
19 12 10
5 7 9
12 14 8
5 12 5
18 12 5
14 12 5
10 45 5
22 12 5
12 15 4
14 10 4
19 14 4
45 19 4
12 13 3
13 12 3
12 22 3
14 19 3
15 12 3
10 19 3
12 37 3
19 10 3
12 5 3
7 19 3
19 22 3
11 12 2
18 21 2
21 18 2
18 15 2
15 18 2
12 18 2
10 14 2
45 10 2
12 27 2
27 12 2
30 7 2
48 7 2
7 45 2
58 10 2
1 2 1
2 3 1
3 4 1
4 5 1
5 6 1
6 5 1
7 8 1
8 5 1
5 9 1
9 10 1
10 5 1
5 11 1
11 9 1
9 11 1
12 11 1
14 5 1
15 16 1
16 12 1
10 17 1
17 18 1
19 18 1
12 20 1
20 18 1
15 22 1
22 15 1
10 18 1
12 23 1
23 14 1
18 24 1
24 2 1
2 12 1
19 7 1
7 25 1
25 12 1
12 26 1
26 7 1
7 27 1
27 10 1
22 10 1
12 28 1
28 12 1
14 29 1
29 14 1
19 30 1
30 31 1
31 32 1
32 12 1
10 8 1
8 33 1
33 14 1
14 34 1
34 12 1
12 35 1
35 13 1
13 35 1
35 36 1
36 35 1
35 12 1
37 38 1
38 10 1
10 39 1
39 12 1
14 40 1
40 41 1
41 42 1
42 43 1
43 19 1
12 44 1
44 45 1
14 46 1
46 12 1
12 33 1
33 47 1
47 12 1
12 30 1
7 13 1
13 48 1
7 48 1
7 49 1
49 22 1
22 28 1
28 50 1
50 12 1
12 51 1
51 7 1
45 46 1
46 19 1
45 52 1
52 5 1
13 30 1
5 10 1
10 22 1
5 53 1
53 10 1
19 45 1
45 22 1
22 54 1
54 55 1
55 10 1
45 56 1
56 45 1
10 57 1
57 45 1
45 58 1
58 45 1
37 12 1
37 7 1
45 59 1
59 58 1
58 12 1
12 60 1
60 10 1
10 7 1
19 50 1
50 7 1
22 61 1
61 12 1
12 62 1
62 63 1
63 64 1
64 65 1
65 13 1
12 66 1
66 58 1
10 58 1
45 67 1
67 45 1
45 68 1
68 69 1
69 62 1
62 70 1
70 19 1
19 71 1
71 45 1
45 6 1
6 72 1
72 19 1
19 73 1
73 19 1
19 35 1
35 7 1
19 74 1
74 19 1
12 75 1
75 19 1
12 76 1
76 77 1
77 12 1
12 78 1
78 79 1
79 10 1
10 80 1
80 45 1
45 81 1
81 2 1
2 82 1
82 83 1
83 5 1
5 84 1
84 45 1
19 85 1
85 86 1
86 87 1
87 50 1
50 87 1
87 88 1
88 89 1
89 38 1
38 90 1
90 12 1
