17 10 61
10 17 55
10 8 39
8 10 35
14 10 27
10 14 26
8 17 15
18 17 14
17 8 12
17 18 12
9 10 8
8 25 8
25 8 8
10 9 7
19 17 7
10 13 6
13 14 6
5 10 6
17 19 5
10 5 5
50 8 5
8 50 5
8 62 5
13 10 4
14 13 4
14 5 4
8 14 4
14 17 4
55 8 4
60 12 4
12 10 3
14 8 3
10 19 3
5 21 3
5 14 3
17 5 3
2 43 3
43 2 3
62 8 3
48 64 3
64 48 3
1 4 2
10 12 2
20 5 2
21 5 2
5 20 2
5 8 2
8 5 2
32 16 2
5 17 2
5 19 2
35 38 2
55 56 2
56 55 2
8 57 2
57 55 2
59 10 2
10 60 2
62 10 2
63 14 2
17 14 2
1 2 1
2 1 1
1 3 1
3 1 1
4 1 1
4 5 1
5 6 1
6 7 1
7 8 1
8 6 1
6 9 1
9 11 1
11 9 1
14 15 1
15 16 1
16 14 1
19 20 1
21 22 1
22 5 1
20 10 1
5 23 1
23 24 1
24 5 1
17 26 1
26 27 1
27 10 1
10 28 1
28 10 1
17 29 1
29 30 1
30 29 1
29 31 1
31 32 1
32 33 1
33 32 1
32 34 1
34 32 1
16 32 1
16 35 1
35 31 1
31 36 1
36 31 1
31 16 1
16 17 1
17 9 1
9 18 1
19 5 1
19 37 1
37 18 1
18 37 1
37 35 1
38 35 1
38 39 1
39 35 1
35 40 1
40 41 1
41 18 1
8 42 1
42 2 1
2 42 1
42 43 1
43 44 1
44 2 1
2 13 1
13 45 1
45 14 1
8 46 1
46 8 1
8 47 1
47 6 1
6 8 1
10 11 1
11 48 1
48 11 1
11 49 1
49 17 1
10 50 1
8 51 1
51 52 1
52 8 1
50 53 1
53 54 1
54 8 1
17 55 1
8 55 1
55 17 1
10 55 1
55 58 1
58 8 1
57 8 1
8 56 1
56 57 1
14 59 1
10 59 1
59 17 1
17 59 1
14 55 1
12 60 1
12 9 1
9 19 1
19 9 1
9 60 1
12 8 1
8 61 1
61 8 1
10 63 1
14 63 1
8 48 1
48 17 1
17 65 1
65 17 1
17 66 1
66 14 1
17 48 1
