41 17 75
17 41 72
7 4 28
4 7 26
5 6 20
6 5 20
6 4 13
4 5 12
4 6 12
17 30 11
6 17 11
30 17 10
17 6 10
5 4 9
42 5 7
5 42 6
8 9 5
17 4 4
21 4 4
44 41 4
41 44 4
7 8 3
9 7 3
5 17 3
17 5 3
4 8 3
4 21 3
18 19 2
19 6 2
4 17 2
4 18 2
5 7 2
4 12 2
11 4 2
6 42 2
41 6 2
45 41 2
1 2 1
2 3 1
3 4 1
7 10 1
10 11 1
11 12 1
12 13 1
13 12 1
12 14 1
14 15 1
15 12 1
12 6 1
4 16 1
16 6 1
6 2 1
2 18 1
6 20 1
20 4 1
8 4 1
9 4 1
8 7 1
7 6 1
6 7 1
5 21 1
4 22 1
22 7 1
18 5 1
6 18 1
4 23 1
23 7 1
7 24 1
24 25 1
25 4 1
4 26 1
26 4 1
7 26 1
26 23 1
23 4 1
4 15 1
15 4 1
12 11 1
4 11 1
12 17 1
4 27 1
27 7 1
7 17 1
4 28 1
28 4 1
18 4 1
5 8 1
9 8 1
8 29 1
29 17 1
30 31 1
31 32 1
32 33 1
33 34 1
34 35 1
35 36 1
36 37 1
37 38 1
38 39 1
39 40 1
40 17 1
17 42 1
42 6 1
42 41 1
5 41 1
17 13 1
13 41 1
17 43 1
43 6 1
17 44 1
44 17 1
17 45 1
41 45 1
6 41 1
17 46 1
