8 11 15
11 8 15
15 12 13
12 14 12
12 15 12
14 12 11
16 17 10
17 16 10
16 12 9
12 20 8
20 12 7
11 25 5
25 11 5
11 16 4
12 16 4
18 19 4
16 11 4
12 24 4
24 12 4
18 25 4
20 14 4
12 13 3
13 12 3
16 18 3
18 16 3
19 18 3
25 18 3
14 31 3
14 20 3
8 9 2
9 8 2
19 16 2
19 12 2
11 12 2
12 25 2
12 8 2
31 20 2
25 16 2
1 2 1
2 3 1
3 4 1
4 5 1
5 1 1
1 6 1
6 7 1
7 8 1
8 10 1
10 8 1
8 12 1
12 11 1
12 18 1
12 19 1
16 19 1
20 6 1
6 21 1
21 22 1
22 23 1
23 22 1
22 16 1
25 8 1
8 17 1
16 26 1
26 16 1
17 19 1
12 6 1
6 14 1
12 27 1
27 15 1
14 10 1
10 9 1
9 11 1
8 28 1
28 12 1
12 29 1
29 30 1
30 8 1
8 31 1
31 14 1
14 16 1
25 32 1
32 16 1
31 33 1
33 12 1
16 21 1
21 25 1
11 14 1
20 31 1
31 6 1
6 16 1
12 31 1
31 8 1
8 20 1
20 32 1
32 18 1
16 25 1
8 32 1
32 20 1
20 34 1
34 11 1
11 35 1
35 11 1
