30 27 57
27 30 56
30 29 31
27 3 28
27 28 27
28 27 25
29 30 25
3 27 24
10 29 23
29 10 21
10 3 18
3 10 15
10 30 13
30 10 10
27 10 10
3 21 8
10 27 8
12 30 8
30 12 8
21 3 7
3 12 5
19 8 5
31 30 5
8 57 5
74 3 5
3 74 5
47 36 5
6 31 5
21 57 5
3 8 4
28 3 4
27 29 4
10 31 4
31 10 4
92 30 4
30 31 4
12 29 4
29 12 4
57 21 4
3 6 3
12 10 3
15 3 3
26 3 3
3 28 3
32 9 3
29 27 3
29 35 3
57 8 3
21 27 3
36 90 3
90 30 3
30 92 3
31 6 3
19 21 3
8 3 2
3 9 2
9 10 2
3 11 2
11 10 2
12 7 2
3 14 2
14 3 2
8 19 2
8 20 2
20 14 2
15 11 2
11 21 2
8 15 2
19 3 2
3 26 2
26 27 2
29 31 2
10 32 2
9 32 2
3 29 2
21 10 2
27 38 2
27 40 2
29 47 2
47 29 2
29 6 2
52 53 2
14 19 2
11 59 2
59 11 2
62 19 2
63 19 2
3 75 2
75 3 2
74 75 2
75 74 2
3 22 2
22 21 2
21 77 2
3 30 2
18 30 2
29 81 2
81 30 2
29 26 2
29 18 2
18 79 2
29 21 2
89 90 2
30 90 2
36 30 2
36 47 2
30 36 2
30 47 2
30 16 2
28 16 2
35 21 2
21 8 2
21 19 2
35 29 2
35 15 2
1 2 1
2 3 1
3 4 1
4 5 1
5 3 1
6 7 1
7 8 1
12 13 1
13 12 1
7 14 1
14 12 1
12 15 1
15 12 1
10 6 1
6 16 1
16 12 1
12 16 1
16 9 1
10 12 1
10 17 1
17 12 1
7 18 1
18 3 1
12 3 1
12 9 1
9 3 1
14 11 1
11 15 1
21 22 1
22 3 1
3 15 1
3 20 1
20 3 1
3 23 1
23 21 1
11 3 1
3 19 1
3 24 1
24 25 1
25 3 1
31 29 1
10 19 1
19 16 1
16 3 1
32 33 1
33 32 1
32 29 1
29 32 1
32 34 1
34 27 1
3 35 1
35 16 1
16 27 1
27 36 1
36 10 1
27 9 1
9 27 1
9 29 1
35 3 1
9 31 1
29 3 1
6 21 1
6 3 1
27 37 1
37 27 1
38 27 1
38 39 1
39 27 1
30 40 1
40 30 1
27 41 1
41 27 1
30 41 1
41 10 1
40 42 1
42 29 1
29 43 1
43 10 1
29 44 1
44 45 1
45 46 1
46 29 1
29 48 1
48 49 1
49 10 1
10 47 1
47 10 1
10 18 1
18 29 1
29 50 1
50 10 1
10 51 1
51 29 1
6 52 1
53 52 1
53 10 1
29 54 1
54 55 1
55 56 1
56 27 1
27 57 1
57 14 1
8 58 1
58 15 1
11 14 1
14 8 1
57 19 1
8 9 1
9 60 1
60 8 1
57 9 1
9 8 1
8 61 1
61 14 1
14 61 1
61 8 1
8 14 1
8 62 1
19 62 1
19 24 1
24 8 1
8 63 1
19 63 1
63 64 1
64 65 1
65 64 1
64 24 1
24 65 1
65 19 1
19 65 1
65 63 1
63 66 1
66 19 1
19 67 1
67 68 1
68 15 1
15 68 1
68 63 1
19 14 1
14 69 1
69 70 1
70 71 1
71 14 1
14 63 1
63 65 1
65 68 1
68 71 1
71 20 1
14 72 1
72 19 1
19 72 1
72 73 1
73 11 1
11 27 1
40 27 1
30 74 1
74 76 1
76 3 1
77 21 1
77 26 1
21 78 1
78 3 1
12 79 1
79 3 1
3 80 1
80 18 1
18 10 1
10 26 1
26 81 1
81 26 1
26 82 1
82 18 1
18 26 1
29 36 1
36 29 1
30 21 1
30 18 1
81 29 1
79 30 1
26 18 1
29 79 1
79 81 1
79 29 1
21 16 1
16 11 1
31 3 1
3 83 1
83 6 1
6 84 1
84 85 1
85 86 1
86 19 1
10 14 1
14 27 1
3 57 1
57 31 1
31 47 1
36 87 1
87 88 1
88 89 1
90 36 1
36 88 1
88 90 1
90 47 1
47 91 1
91 88 1
88 36 1
90 87 1
87 47 1
30 89 1
90 89 1
89 47 1
36 92 1
92 36 1
90 88 1
88 87 1
87 92 1
47 93 1
93 91 1
91 47 1
47 87 1
87 90 1
90 94 1
94 89 1
89 92 1
92 90 1
90 95 1
95 30 1
47 30 1
30 87 1
87 36 1
36 91 1
91 96 1
96 30 1
30 97 1
97 30 1
30 98 1
98 30 1
16 28 1
16 99 1
99 28 1
28 85 1
85 28 1
28 100 1
100 28 1
16 81 1
81 28 1
28 30 1
29 101 1
101 29 1
31 86 1
86 6 1
31 7 1
7 86 1
86 7 1
7 31 1
31 12 1
12 35 1
8 102 1
102 35 1
21 14 1
14 57 1
57 24 1
24 57 1
57 11 1
57 29 1
29 20 1
20 8 1
8 24 1
24 15 1
15 29 1
29 24 1
24 29 1
8 35 1
15 77 1
77 35 1
15 8 1
20 29 1
29 8 1
8 29 1
29 28 1
28 19 1
28 103 1
103 57 1
57 27 1
16 104 1
