4 2 14
2 4 13
12 24 11
2 3 9
3 2 9
13 12 9
24 12 9
5 6 8
12 13 8
6 5 7
8 2 6
10 11 5
11 10 4
17 12 3
12 17 3
12 19 3
19 12 3
6 22 3
22 6 3
2 8 3
3 4 2
6 7 2
4 8 2
15 16 2
16 15 2
4 21 2
21 4 2
21 2 2
2 21 2
2 12 2
26 27 2
27 26 2
18 17 2
2 24 2
2 31 2
31 2 2
1 2 1
2 5 1
7 8 1
2 9 1
9 3 1
2 7 1
7 6 1
7 5 1
6 10 1
11 12 1
12 14 1
14 11 1
11 15 1
15 17 1
12 18 1
18 12 1
19 18 1
18 19 1
12 20 1
20 4 1
21 6 1
6 21 1
4 23 1
23 6 1
5 4 1
2 6 1
6 2 1
24 4 1
4 12 1
12 25 1
25 26 1
26 8 1
8 11 1
11 26 1
26 28 1
28 13 1
12 29 1
29 12 1
13 18 1
17 18 1
17 13 1
17 2 1
24 30 1
30 8 1
8 3 1
3 24 1
24 2 1
24 3 1
