17 6 29
6 17 29
6 14 22
14 6 20
20 6 14
6 20 10
6 25 9
25 38 9
38 25 8
25 6 7
6 29 7
7 6 6
6 7 6
29 6 6
41 38 6
38 41 6
10 6 5
6 10 5
11 6 4
6 27 4
14 20 4
38 39 4
7 8 3
8 7 3
6 11 3
13 6 3
6 13 3
22 6 3
27 6 3
33 14 3
14 33 3
37 6 3
39 38 3
42 43 3
5 6 2
6 5 2
19 6 2
6 21 2
6 22 2
25 17 2
6 31 2
31 6 2
20 14 2
6 33 2
6 36 2
6 37 2
40 38 2
38 40 2
43 42 2
1 2 1
2 3 1
3 4 1
4 5 1
5 7 1
6 9 1
9 10 1
10 11 1
11 12 1
12 11 1
6 12 1
12 7 1
7 13 1
13 7 1
7 14 1
7 15 1
15 6 1
6 15 1
15 16 1
16 17 1
6 18 1
18 19 1
17 20 1
21 6 1
21 17 1
17 22 1
17 23 1
23 14 1
6 24 1
24 6 1
17 25 1
6 26 1
26 17 1
27 28 1
28 27 1
29 30 1
30 6 1
27 26 1
26 6 1
6 32 1
32 6 1
33 6 1
33 20 1
6 34 1
34 6 1
17 35 1
35 6 1
36 6 1
36 37 1
39 25 1
25 40 1
40 25 1
25 41 1
41 19 1
14 42 1
43 13 1
13 31 1
31 44 1
44 45 1
45 46 1
46 47 1
47 42 1
42 48 1
48 49 1
49 50 1
50 51 1
51 45 1
45 51 1
51 6 1
14 46 1
46 31 1
31 52 1
52 6 1
