9 25 19
9 27 18
27 9 18
25 9 18
8 9 15
2 36 14
9 8 13
36 2 13
2 3 12
2 25 12
12 2 11
25 12 11
8 38 11
38 8 11
3 2 10
2 12 10
12 25 10
25 2 10
39 2 9
7 8 8
9 11 8
2 9 8
9 2 8
2 39 8
11 9 7
8 7 6
14 2 6
2 23 6
2 4 5
4 2 5
8 11 5
11 8 5
21 2 5
23 2 5
2 14 5
31 22 5
22 31 5
7 9 4
9 7 4
17 14 4
42 2 4
2 15 3
15 2 3
14 17 3
2 21 3
5 6 2
6 5 2
10 9 2
11 7 2
12 13 2
13 12 2
13 2 2
2 13 2
3 18 2
19 2 2
2 19 2
28 9 2
9 29 2
9 36 2
36 9 2
2 41 2
2 42 2
2 8 2
43 44 2
1 2 1
3 5 1
5 7 1
7 10 1
9 10 1
7 11 1
9 12 1
12 14 1
2 16 1
16 2 1
2 17 1
17 2 1
8 17 1
18 2 1
3 19 1
2 20 1
20 21 1
2 18 1
18 21 1
19 3 1
18 19 1
19 22 1
22 20 1
20 2 1
2 7 1
23 8 1
8 24 1
24 12 1
12 26 1
26 9 1
27 28 1
9 28 1
28 27 1
29 9 1
29 28 1
14 22 1
22 14 1
14 30 1
30 14 1
2 22 1
22 2 1
2 31 1
31 2 1
14 32 1
32 9 1
9 30 1
30 9 1
25 33 1
33 25 1
9 34 1
34 35 1
35 9 1
9 37 1
37 9 1
27 37 1
37 27 1
8 2 1
25 39 1
36 8 1
9 40 1
40 2 1
41 2 1
41 9 1
8 42 1
9 15 1
15 3 1
8 3 1
3 8 1
9 42 1
9 43 1
44 43 1
44 39 1
39 9 1
