1 3 92
3 1 89
4 1 32
1 4 30
1 5 18
5 1 17
3 17 12
1 26 11
17 3 10
26 1 10
35 1 10
3 11 8
17 1 8
1 35 7
11 1 6
11 3 6
1 17 6
25 1 6
1 25 5
10 11 3
1 11 3
1 31 3
31 1 3
1 33 3
33 1 3
5 35 3
1 37 3
39 40 3
40 3 3
5 24 3
24 5 3
3 4 2
1 15 2
16 17 2
3 18 2
18 3 2
20 3 2
21 1 2
5 26 2
26 27 2
27 1 2
26 28 2
27 26 2
1 28 2
28 1 2
29 1 2
37 1 2
3 37 2
37 39 2
42 40 2
1 2 1
2 3 1
1 6 1
6 7 1
7 8 1
8 9 1
9 10 1
11 10 1
11 12 1
12 10 1
1 13 1
13 1 1
1 14 1
14 1 1
15 16 1
15 3 1
3 19 1
19 3 1
1 20 1
3 20 1
17 21 1
21 17 1
17 22 1
22 16 1
17 16 1
16 3 1
3 21 1
1 23 1
23 3 1
3 24 1
24 25 1
25 17 1
17 5 1
28 27 1
26 5 1
5 27 1
28 26 1
1 29 1
1 27 1
27 5 1
26 29 1
4 3 1
3 30 1
30 1 1
1 32 1
32 25 1
1 21 1
3 34 1
34 5 1
1 7 1
7 5 1
1 36 1
36 3 1
37 4 1
1 38 1
38 3 1
40 41 1
41 5 1
5 40 1
3 42 1
40 1 1
1 42 1
40 39 1
3 43 1
