7 12 61
12 7 55
21 12 30
12 21 28
12 43 27
32 12 26
12 32 26
43 12 25
10 12 22
12 10 22
43 7 9
12 73 8
12 6 7
6 12 6
32 43 6
73 12 6
6 21 5
66 12 5
12 66 5
7 73 5
29 12 4
12 29 4
43 44 4
44 43 4
21 6 4
73 7 4
32 7 4
6 7 3
7 9 3
17 12 3
12 23 3
12 26 3
26 12 3
12 5 3
10 54 3
21 32 3
7 32 3
43 32 3
7 43 3
5 6 2
6 8 2
8 6 2
9 7 2
12 17 2
23 12 2
44 12 2
43 21 2
12 46 2
46 12 2
21 7 2
49 12 2
12 50 2
50 12 2
7 21 2
57 58 2
43 51 2
51 43 2
32 21 2
50 43 2
79 73 2
12 101 2
1 2 1
2 3 1
3 4 1
4 5 1
7 6 1
7 8 1
8 5 1
6 9 1
9 6 1
9 10 1
10 11 1
11 10 1
10 13 1
13 10 1
12 14 1
14 12 1
12 15 1
15 16 1
16 12 1
12 18 1
18 12 1
12 19 1
19 20 1
20 12 1
21 22 1
22 12 1
12 22 1
22 21 1
23 24 1
24 25 1
25 12 1
12 27 1
27 12 1
12 24 1
24 28 1
28 29 1
29 24 1
24 30 1
30 31 1
31 32 1
32 33 1
33 32 1
32 34 1
34 35 1
35 23 1
12 36 1
36 32 1
10 7 1
7 10 1
10 37 1
37 7 1
12 38 1
38 12 1
12 39 1
39 12 1
12 40 1
40 12 1
32 41 1
41 12 1
12 42 1
42 12 1
12 44 1
12 45 1
45 44 1
46 21 1
21 46 1
5 21 1
7 47 1
47 48 1
48 12 1
5 7 1
7 49 1
12 51 1
51 52 1
52 21 1
21 53 1
53 12 1
54 55 1
55 12 1
12 56 1
56 10 1
54 10 1
54 12 1
12 57 1
58 59 1
59 57 1
58 10 1
12 60 1
60 12 1
12 61 1
61 62 1
62 63 1
63 62 1
62 12 1
23 43 1
12 64 1
64 65 1
65 48 1
48 66 1
66 67 1
67 17 1
17 68 1
68 17 1
12 69 1
69 48 1
48 32 1
12 70 1
70 7 1
7 71 1
71 38 1
38 7 1
21 43 1
43 22 1
22 7 1
7 72 1
72 43 1
12 65 1
65 43 1
7 50 1
5 73 1
73 49 1
73 74 1
74 75 1
75 73 1
73 76 1
76 49 1
49 73 1
73 77 1
77 78 1
78 79 1
73 80 1
80 12 1
12 81 1
81 12 1
73 82 1
82 73 1
12 83 1
83 7 1
12 84 1
84 12 1
12 85 1
85 86 1
86 12 1
12 87 1
87 88 1
88 12 1
12 89 1
89 7 1
7 70 1
70 12 1
12 90 1
90 91 1
91 92 1
92 5 1
5 32 1
32 93 1
93 7 1
12 94 1
94 7 1
7 95 1
95 12 1
73 43 1
43 50 1
43 79 1
73 96 1
96 73 1
73 97 1
97 43 1
43 98 1
98 12 1
43 99 1
99 7 1
73 32 1
7 100 1
100 7 1
7 38 1
38 43 1
101 102 1
102 12 1
101 32 1
43 103 1
103 43 1
43 104 1
104 105 1
105 12 1
7 106 1
106 12 1
7 107 1
107 108 1
