5 4 180
4 5 170
3 9 36
9 3 34
4 41 26
41 4 25
3 8 24
8 3 23
3 5 22
5 3 20
18 8 16
8 18 13
42 41 11
47 5 11
41 5 10
41 42 10
5 47 10
19 18 9
5 41 9
42 4 9
18 19 8
21 8 8
4 42 8
4 3 7
8 19 7
8 21 7
3 4 5
5 6 5
6 5 5
37 5 5
19 8 4
4 20 4
20 4 4
4 23 4
23 5 4
24 4 4
34 18 4
38 37 4
4 49 4
8 5 3
4 11 3
14 5 3
16 17 3
17 16 3
4 24 3
28 29 3
29 28 3
5 30 3
31 3 3
4 14 3
4 36 3
5 38 3
49 4 3
11 4 2
12 5 2
9 5 2
20 5 2
5 20 2
23 4 2
5 23 2
25 24 2
5 26 2
26 5 2
30 5 2
3 31 2
18 34 2
36 4 2
36 37 2
37 36 2
36 38 2
38 4 2
4 38 2
38 39 2
37 41 2
41 38 2
38 41 2
41 37 2
46 42 2
1 2 1
2 3 1
3 7 1
7 3 1
5 9 1
9 10 1
10 4 1
11 5 1
5 12 1
5 13 1
13 12 1
3 2 1
2 4 1
5 14 1
4 15 1
15 5 1
4 9 1
5 16 1
16 4 1
5 18 1
19 5 1
5 21 1
4 8 1
8 22 1
22 8 1
5 8 1
18 5 1
4 25 1
24 5 1
5 25 1
5 7 1
7 4 1
4 7 1
7 5 1
5 27 1
27 3 1
4 28 1
28 5 1
30 4 1
4 31 1
31 32 1
32 3 1
9 8 1
8 31 1
3 32 1
32 33 1
33 3 1
3 34 1
19 34 1
8 34 1
34 5 1
5 35 1
35 4 1
14 4 1
4 37 1
37 4 1
39 36 1
39 4 1
4 40 1
40 38 1
38 40 1
40 37 1
5 37 1
37 38 1
4 43 1
43 41 1
5 44 1
44 5 1
5 45 1
45 42 1
41 46 1
42 46 1
41 3 1
5 48 1
48 47 1
4 47 1
47 4 1
49 50 1
50 4 1
