13 5 60
5 13 58
5 8 37
8 5 37
13 11 30
11 13 30
5 7 20
7 5 18
11 5 18
5 11 17
13 18 12
5 35 12
35 5 12
18 13 11
32 33 11
33 32 11
9 5 10
13 27 10
24 5 9
5 9 8
5 24 8
27 13 8
13 20 6
20 13 6
5 20 6
27 28 6
20 5 5
27 25 5
4 5 4
12 13 4
11 21 4
11 27 4
28 27 4
25 27 4
25 28 4
32 35 4
35 32 4
35 28 4
28 35 4
5 4 3
6 5 3
5 6 3
5 12 3
14 13 3
21 11 3
27 11 3
28 13 3
28 25 3
4 6 2
6 4 2
8 9 2
13 9 2
13 14 2
13 17 2
17 13 2
19 13 2
21 13 2
13 24 2
24 11 2
28 11 2
27 5 2
13 25 2
25 13 2
27 32 2
35 33 2
33 35 2
32 27 2
27 35 2
35 27 2
1 2 1
2 3 1
3 4 1
7 8 1
9 8 1
5 10 1
10 5 1
9 11 1
13 12 1
11 9 1
9 13 1
11 14 1
11 15 1
15 11 1
13 16 1
16 13 1
18 8 1
8 11 1
11 19 1
13 19 1
20 11 1
5 21 1
13 21 1
21 22 1
22 11 1
11 23 1
23 11 1
11 24 1
7 13 1
5 25 1
25 5 1
11 26 1
26 11 1
13 28 1
5 29 1
29 27 1
11 25 1
27 30 1
30 28 1
13 31 1
31 27 1
25 26 1
26 25 1
5 27 1
32 34 1
34 32 1
25 36 1
36 28 1
28 5 1
