18 13 42
13 18 41
13 58 26
58 13 24
13 16 17
16 13 16
13 31 15
31 13 13
42 15 12
15 42 12
18 21 11
21 18 11
58 59 9
59 58 9
15 13 8
59 13 8
13 15 7
21 13 6
13 21 6
13 59 6
22 15 5
13 65 5
65 13 5
58 67 5
13 68 5
16 17 4
17 18 4
18 17 4
13 20 4
15 22 4
18 15 4
61 58 4
67 58 4
68 58 4
58 68 4
68 13 4
10 13 3
17 16 3
20 13 3
15 47 3
47 15 3
58 61 3
5 3 2
8 9 2
13 10 2
18 22 2
30 15 2
15 18 2
39 36 2
16 18 2
15 53 2
53 15 2
13 63 2
15 64 2
64 15 2
1 2 1
2 3 1
3 2 1
2 4 1
4 5 1
3 5 1
3 6 1
6 7 1
7 3 1
3 8 1
9 10 1
10 11 1
11 12 1
12 10 1
13 14 1
14 13 1
15 16 1
17 19 1
19 18 1
20 18 1
15 23 1
23 13 1
13 24 1
24 13 1
13 25 1
25 18 1
18 26 1
26 13 1
13 27 1
27 13 1
18 28 1
28 29 1
29 18 1
22 30 1
15 1 1
1 15 1
15 30 1
31 32 1
32 13 1
31 33 1
33 34 1
34 18 1
15 35 1
35 13 1
13 36 1
36 37 1
37 15 1
18 38 1
38 18 1
13 39 1
36 13 1
18 40 1
40 39 1
36 18 1
18 39 1
39 15 1
15 21 1
18 41 1
41 15 1
15 41 1
41 16 1
21 42 1
42 43 1
43 42 1
42 18 1
13 44 1
44 18 1
18 44 1
44 13 1
13 45 1
45 44 1
44 16 1
16 21 1
21 46 1
46 18 1
15 48 1
48 49 1
49 13 1
18 50 1
50 18 1
13 51 1
51 18 1
18 52 1
52 13 1
13 54 1
54 15 1
13 55 1
55 56 1
56 13 1
15 57 1
57 13 1
13 8 1
9 58 1
58 60 1
60 61 1
58 62 1
62 13 1
63 13 1
63 15 1
65 66 1
66 13 1
58 65 1
67 8 1
8 58 1
68 69 1
69 68 1
58 70 1
70 71 1
71 58 1
58 72 1
72 64 1
64 20 1
20 54 1
54 20 1
20 73 1
73 42 1
42 59 1
58 74 1
74 13 1
15 58 1
13 75 1
75 59 1
