29 12 37
12 29 37
15 12 15
34 29 9
30 29 8
29 34 8
12 15 8
29 30 7
33 29 7
39 12 7
29 15 7
29 14 6
29 33 6
12 39 6
39 29 5
29 39 5
11 29 5
14 15 4
14 29 4
12 8 4
15 29 4
29 11 4
12 11 3
12 14 3
12 31 3
29 36 3
8 12 3
12 34 3
39 34 3
34 39 3
34 15 3
11 12 2
14 12 2
12 18 2
14 31 2
31 14 2
31 12 2
34 30 2
12 25 2
55 34 2
29 13 2
15 14 2
71 12 2
15 34 2
1 2 1
2 3 1
3 4 1
4 5 1
5 6 1
6 7 1
7 8 1
8 9 1
9 10 1
10 11 1
12 13 1
13 12 1
11 14 1
14 16 1
16 12 1
12 17 1
17 14 1
18 12 1
18 19 1
19 20 1
20 21 1
21 22 1
22 23 1
23 24 1
24 25 1
25 26 1
26 27 1
27 28 1
28 14 1
14 32 1
32 33 1
30 12 1
31 13 1
13 35 1
35 29 1
36 37 1
37 29 1
12 38 1
38 12 1
25 39 1
29 40 1
40 41 1
41 29 1
12 42 1
42 40 1
40 39 1
39 43 1
43 44 1
44 45 1
45 39 1
39 42 1
42 12 1
12 44 1
44 46 1
46 12 1
12 47 1
47 12 1
12 48 1
48 29 1
12 49 1
49 50 1
50 29 1
36 51 1
51 52 1
52 12 1
12 53 1
53 54 1
54 29 1
29 55 1
34 56 1
56 57 1
57 55 1
29 58 1
58 59 1
59 29 1
14 40 1
40 12 1
13 15 1
15 60 1
60 15 1
8 15 1
34 61 1
61 62 1
62 34 1
34 63 1
63 64 1
64 34 1
34 14 1
14 65 1
65 8 1
8 29 1
12 66 1
66 67 1
67 12 1
12 68 1
68 8 1
8 39 1
39 69 1
69 44 1
44 34 1
34 70 1
70 34 1
15 71 1
29 72 1
72 29 1
29 71 1
36 15 1
12 36 1
36 29 1
13 30 1
15 73 1
73 29 1
15 74 1
74 75 1
75 73 1
73 15 1
14 75 1
75 11 1
11 76 1
76 77 1
77 75 1
75 29 1
29 25 1
25 29 1
29 78 1
78 29 1
29 79 1
79 80 1
80 29 1
29 81 1
81 12 1
12 81 1
81 29 1
12 82 1
82 15 1
25 34 1
30 83 1
83 15 1
15 11 1
11 84 1
84 85 1
85 11 1
11 86 1
86 12 1
29 87 1
87 88 1
88 89 1
89 29 1
29 90 1
90 29 1
29 91 1
91 34 1
34 92 1
92 15 1
15 93 1
93 73 1
73 94 1
94 95 1
95 12 1
34 12 1
34 96 1
96 34 1
