4 6 20
34 35 18
2 6 17
2 11 17
11 2 17
6 4 16
2 28 16
28 2 16
35 34 16
4 5 14
3 2 14
2 3 13
5 4 13
6 13 13
6 2 13
35 36 12
36 35 12
25 2 11
11 30 11
30 11 11
2 25 10
31 32 10
13 6 9
32 31 9
6 40 9
11 6 8
2 26 7
6 11 7
13 4 6
4 11 6
26 2 6
40 6 6
4 13 5
13 11 5
6 5 5
5 6 5
2 13 4
4 7 3
2 4 3
3 6 3
14 4 3
13 2 3
26 27 3
25 29 3
29 25 3
32 37 3
37 32 3
11 4 3
11 3 3
40 13 3
40 2 3
3 4 2
10 3 2
8 10 2
10 2 2
7 5 2
2 15 2
2 16 2
13 3 2
24 4 2
7 4 2
6 14 2
27 26 2
33 34 2
35 33 2
11 40 2
13 40 2
15 4 2
1 2 1
7 8 1
8 9 1
9 10 1
6 3 1
4 8 1
10 8 1
3 10 1
11 12 1
12 2 1
4 14 1
5 7 1
5 13 1
11 13 1
15 2 1
16 13 1
3 16 1
16 2 1
16 10 1
10 17 1
17 10 1
10 18 1
18 19 1
19 18 1
18 6 1
6 20 1
20 13 1
3 13 1
13 21 1
21 10 1
10 22 1
22 23 1
23 2 1
4 24 1
6 7 1
14 6 1
14 24 1
5 2 1
27 2 1
4 25 1
11 31 1
32 33 1
33 35 1
35 32 1
32 30 1
30 38 1
38 11 1
6 10 1
13 39 1
39 4 1
13 10 1
10 6 1
4 3 1
2 14 1
40 11 1
2 40 1
40 4 1
2 41 1
41 2 1
4 2 1
6 41 1
41 11 1
11 14 1
6 15 1
