5 6 35
6 5 33
7 8 25
8 7 22
32 33 19
33 32 18
4 3 16
5 37 16
4 28 15
5 31 15
37 5 15
3 4 14
31 5 14
3 5 13
5 3 13
28 4 13
29 30 12
30 29 12
4 1 7
25 26 7
26 25 7
1 4 6
10 8 6
1 3 6
18 41 6
3 46 6
46 3 6
8 10 5
5 7 5
1 5 5
41 18 5
18 7 5
1 2 4
1 7 4
7 18 4
3 1 4
7 1 4
2 1 3
6 1 3
7 3 3
3 8 3
8 1 3
7 11 3
11 7 3
3 7 3
5 1 3
33 35 3
35 32 3
37 6 3
8 18 3
8 3 2
7 5 2
3 2 2
7 4 2
4 12 2
5 4 2
5 8 2
6 8 2
8 5 2
35 33 2
32 35 2
6 37 2
4 5 2
3 45 2
2 3 1
1 9 1
9 8 1
11 6 1
3 11 1
7 10 1
10 5 1
3 10 1
2 12 1
12 4 1
4 13 1
13 3 1
8 14 1
14 15 1
15 5 1
5 16 1
16 17 1
17 18 1
18 19 1
19 20 1
20 14 1
14 4 1
4 7 1
12 14 1
14 21 1
21 22 1
22 23 1
23 7 1
18 5 1
7 24 1
24 5 1
5 18 1
18 25 1
25 4 1
4 27 1
27 4 1
28 29 1
29 5 1
31 6 1
6 31 1
31 14 1
14 18 1
18 3 1
6 3 1
3 6 1
3 12 1
12 5 1
1 6 1
8 4 1
28 6 1
6 32 1
33 34 1
34 33 1
32 36 1
36 37 1
37 36 1
36 6 1
12 3 1
6 33 1
33 5 1
5 38 1
38 7 1
8 39 1
39 7 1
7 40 1
40 5 1
6 40 1
40 6 1
41 7 1
7 42 1
42 18 1
18 8 1
2 4 1
3 43 1
43 44 1
44 43 1
43 3 1
3 28 1
28 3 1
45 4 1
45 3 1
3 47 1
47 4 1
1 48 1
48 7 1
7 48 1
48 18 1
18 1 1
1 49 1
