6 5 20
5 6 19
3 4 13
5 3 13
4 3 13
3 5 13
14 15 12
7 14 12
26 4 10
4 26 10
5 4 9
4 5 8
3 6 8
5 25 8
25 5 8
15 14 8
14 7 8
6 4 7
33 34 7
39 4 7
15 7 7
6 19 6
4 6 6
34 33 6
4 39 6
4 7 5
7 9 5
6 3 5
3 17 5
17 3 5
19 6 5
23 24 5
24 23 5
9 7 5
7 15 5
7 4 4
5 9 4
7 42 4
1 3 3
9 5 3
6 9 3
18 7 3
7 18 3
42 7 3
1 2 2
2 1 2
3 7 2
8 3 2
9 6 2
5 7 2
9 3 2
1 10 2
3 8 2
18 3 2
4 18 2
19 20 2
6 21 2
21 6 2
6 22 2
22 6 2
3 27 2
10 1 2
1 4 2
6 1 1
7 2 1
2 5 1
5 8 1
7 6 1
4 9 1
4 1 1
10 11 1
11 4 1
4 12 1
12 3 1
8 13 1
13 14 1
15 10 1
10 5 1
3 16 1
16 3 1
3 14 1
14 3 1
3 15 1
15 18 1
7 3 1
3 9 1
20 19 1
20 6 1
6 23 1
23 5 1
5 26 1
26 7 1
27 3 1
27 14 1
14 6 1
6 15 1
15 6 1
3 28 1
28 3 1
9 29 1
29 5 1
9 30 1
30 10 1
18 15 1
15 3 1
3 31 1
31 3 1
4 16 1
16 5 1
4 32 1
32 4 1
3 33 1
33 35 1
35 33 1
34 10 1
10 36 1
36 1 1
1 37 1
37 1 1
1 38 1
38 1 1
14 9 1
15 39 1
6 40 1
40 6 1
9 4 1
39 6 1
6 39 1
7 41 1
41 7 1
42 4 1
4 43 1
43 1 1
3 32 1
