10 3 29
3 10 27
7 3 25
3 7 23
10 5 19
5 10 19
8 6 15
15 16 11
18 29 11
16 15 11
29 18 10
6 8 10
1 8 8
6 10 8
10 6 7
27 3 7
6 33 7
33 6 7
40 3 7
5 6 6
8 1 6
6 1 6
18 19 6
19 18 6
3 27 6
6 31 6
3 40 6
6 3 5
3 6 5
3 5 5
31 6 5
1 5 4
1 6 4
6 2 4
35 36 4
36 35 4
39 3 4
3 39 4
10 7 3
5 3 3
5 1 3
3 8 3
8 3 3
37 36 3
1 2 2
6 7 2
5 8 2
2 10 2
3 11 2
13 7 2
11 12 2
12 14 2
6 5 2
7 27 2
27 7 2
33 32 2
34 8 2
31 8 2
6 9 2
9 6 2
2 8 2
36 37 2
35 37 2
7 39 2
39 7 2
7 10 2
2 3 1
3 4 1
4 1 1
7 1 1
3 9 1
9 10 1
10 2 1
2 5 1
11 3 1
3 12 1
12 13 1
14 13 1
13 15 1
16 11 1
14 5 1
10 17 1
17 5 1
5 17 1
17 18 1
19 1 1
1 17 1
17 1 1
1 10 1
10 20 1
20 3 1
10 21 1
21 22 1
22 13 1
13 21 1
21 23 1
23 24 1
24 13 1
13 3 1
3 25 1
25 3 1
8 10 1
3 1 1
1 26 1
26 10 1
3 28 1
28 27 1
3 19 1
29 30 1
30 29 1
29 6 1
6 16 1
15 31 1
6 32 1
32 6 1
32 33 1
31 33 1
32 34 1
8 32 1
32 8 1
8 31 1
9 34 1
8 28 1
28 3 1
8 9 1
2 6 1
8 35 1
37 35 1
36 38 1
38 35 1
35 7 1
3 15 1
15 40 1
40 7 1
7 40 1
3 41 1
41 3 1
7 42 1
42 7 1
7 13 1
7 5 1
