8 39 24
39 8 24
9 27 18
27 9 17
5 4 13
9 25 12
4 5 11
7 11 10
25 9 10
8 1 10
11 7 9
1 8 9
9 10 8
11 32 8
32 11 8
5 8 8
10 8 7
8 10 7
8 5 7
27 5 7
10 9 6
1 2 5
4 8 5
11 9 5
5 27 5
2 1 4
28 4 4
4 28 4
9 11 4
29 4 4
8 4 3
12 13 3
9 23 3
23 9 3
4 26 3
4 29 3
35 27 3
27 35 3
8 27 3
1 43 3
43 1 3
8 9 2
13 12 2
24 9 2
26 4 2
30 4 2
27 8 2
8 37 2
4 11 2
11 4 2
4 37 2
2 3 1
3 1 1
1 4 1
5 6 1
6 7 1
7 4 1
10 7 1
11 12 1
13 14 1
14 4 1
4 15 1
15 14 1
14 16 1
16 17 1
17 18 1
18 17 1
17 14 1
14 19 1
19 15 1
15 19 1
19 11 1
11 20 1
20 19 1
19 21 1
21 18 1
18 9 1
9 22 1
22 9 1
9 24 1
25 23 1
23 24 1
9 5 1
26 5 1
4 27 1
27 28 1
28 5 1
29 5 1
5 30 1
4 30 1
4 31 1
31 11 1
11 33 1
33 11 1
9 7 1
7 9 1
9 34 1
34 9 1
25 35 1
35 36 1
36 8 1
5 36 1
36 5 1
27 36 1
36 27 1
37 27 1
37 8 1
5 38 1
38 8 1
10 5 1
5 37 1
37 4 1
5 29 1
37 29 1
4 9 1
9 4 1
4 40 1
40 4 1
39 41 1
41 5 1
37 5 1
5 9 1
9 42 1
42 9 1
27 39 1
1 39 1
39 44 1
44 9 1
