10 17 27
17 10 26
9 13 14
13 9 13
33 9 12
9 33 11
12 14 8
25 10 8
7 8 7
8 7 7
13 17 7
30 14 7
7 9 6
17 9 6
10 25 6
20 9 6
9 10 5
12 9 5
17 12 5
14 12 5
17 13 5
9 20 5
14 30 5
3 4 4
12 17 4
18 12 4
10 12 4
10 21 4
9 17 4
14 26 4
26 14 4
14 29 4
9 28 4
9 34 4
4 3 3
10 11 3
10 9 3
12 16 3
16 12 3
12 18 3
12 10 3
14 20 3
11 10 3
21 10 3
9 23 3
9 22 3
22 9 3
29 14 3
29 30 3
9 7 3
33 34 3
34 9 3
34 13 3
9 12 2
14 15 2
15 12 2
16 10 2
10 16 2
13 12 2
9 14 2
17 22 2
17 20 2
17 25 2
28 9 2
20 7 2
14 31 2
34 33 2
33 13 2
13 33 2
1 2 1
2 3 1
4 5 1
5 6 1
6 7 1
11 9 1
13 14 1
16 14 1
14 16 1
16 9 1
10 19 1
19 10 1
10 13 1
12 15 1
15 20 1
20 12 1
10 14 1
14 17 1
14 10 1
20 11 1
11 12 1
12 13 1
13 11 1
21 17 1
22 17 1
20 17 1
23 17 1
23 13 1
20 23 1
23 9 1
23 24 1
24 13 1
25 17 1
22 20 1
20 27 1
27 7 1
7 20 1
20 28 1
28 14 1
30 18 1
28 7 1
28 20 1
7 30 1
30 29 1
31 29 1
31 14 1
14 7 1
9 8 1
8 9 1
13 32 1
32 13 1
13 15 1
15 16 1
7 14 1
14 25 1
9 1 1
1 5 1
5 14 1
14 33 1
9 35 1
35 12 1
12 33 1
13 34 1
13 20 1
20 13 1
