10 9 20
9 10 20
3 28 9
28 3 9
28 40 9
17 18 8
30 24 8
24 30 8
10 33 8
18 17 7
40 28 7
24 28 6
33 10 6
28 24 5
11 33 5
8 10 4
33 11 4
10 8 4
2 3 3
8 9 3
9 8 3
32 14 3
10 11 3
33 9 3
44 14 3
50 14 3
9 11 2
11 12 2
12 11 2
12 13 2
13 12 2
13 14 2
18 9 2
9 19 2
27 28 2
14 32 2
11 10 2
23 10 2
33 18 2
18 34 2
34 18 2
9 33 2
18 35 2
35 18 2
9 34 2
34 23 2
37 38 2
38 37 2
37 14 2
14 44 2
22 10 2
9 22 2
14 50 2
1 2 1
3 4 1
4 5 1
5 6 1
6 2 1
3 2 1
3 5 1
5 2 1
2 6 1
6 4 1
4 7 1
7 8 1
14 15 1
15 16 1
16 13 1
13 11 1
11 17 1
19 20 1
20 21 1
21 9 1
19 22 1
22 19 1
19 23 1
23 24 1
24 21 1
21 25 1
25 4 1
4 26 1
26 27 1
28 27 1
27 29 1
29 27 1
28 30 1
30 3 1
3 15 1
15 14 1
14 31 1
31 32 1
14 33 1
10 23 1
33 23 1
23 11 1
18 10 1
11 9 1
11 36 1
36 9 1
23 34 1
34 37 1
14 37 1
14 39 1
39 38 1
38 14 1
14 28 1
28 41 1
41 28 1
40 42 1
42 28 1
40 9 1
9 43 1
43 10 1
9 13 1
14 13 1
11 44 1
14 45 1
45 46 1
46 10 1
10 22 1
10 34 1
34 11 1
11 34 1
34 28 1
28 34 1
34 22 1
10 5 1
5 9 1
23 9 1
22 9 1
22 11 1
11 23 1
9 14 1
14 9 1
8 28 1
28 11 1
11 22 1
22 20 1
20 47 1
47 21 1
21 17 1
17 48 1
48 17 1
17 9 1
9 24 1
28 49 1
49 50 1
14 51 1
51 52 1
52 51 1
