20 8 17
8 20 15
8 18 13
18 8 12
14 16 11
16 14 10
36 8 8
24 25 7
25 24 7
18 6 7
8 36 7
17 18 6
18 17 6
21 22 6
24 22 6
22 24 6
6 18 6
8 31 6
31 8 6
13 14 5
22 21 5
6 2 4
8 19 4
8 2 4
2 8 4
2 6 3
14 13 3
19 8 3
2 39 3
39 2 3
3 9 2
9 2 2
2 9 2
16 13 2
13 16 2
17 8 2
19 20 2
8 17 2
17 20 2
2 18 2
18 33 2
18 2 2
1 2 1
2 3 1
3 4 1
4 5 1
5 4 1
4 6 1
2 7 1
7 8 1
8 3 1
9 3 1
9 6 1
6 10 1
10 11 1
11 7 1
7 6 1
6 7 1
7 12 1
12 9 1
9 13 1
14 15 1
15 13 1
16 17 1
20 17 1
20 19 1
8 21 1
22 23 1
23 24 1
24 2 1
18 26 1
26 27 1
27 28 1
28 18 1
18 29 1
29 30 1
30 8 1
8 30 1
30 18 1
6 31 1
31 32 1
32 8 1
18 9 1
9 18 1
33 34 1
34 18 1
33 18 1
18 35 1
35 18 1
18 36 1
36 37 1
37 12 1
12 8 1
8 12 1
12 36 1
8 38 1
38 18 1
