14 7 16
7 14 15
11 2 13
2 11 12
2 7 11
7 8 11
8 7 10
7 2 10
2 3 8
11 13 8
2 8 8
8 2 8
7 20 8
13 11 7
20 21 7
21 20 7
3 13 7
13 3 7
2 26 7
26 2 7
2 13 7
7 31 7
31 7 7
20 7 7
3 2 6
10 11 6
11 10 5
14 15 5
15 14 5
13 2 5
3 37 5
37 3 5
14 8 5
8 14 5
11 34 5
14 18 4
18 14 4
34 11 4
2 4 3
4 2 3
3 4 3
14 16 3
16 14 3
24 2 3
4 5 2
14 17 2
17 14 2
3 22 2
2 24 2
4 27 2
27 6 2
29 30 2
30 29 2
1 2 1
4 3 1
5 6 1
6 2 1
5 2 1
8 9 1
9 10 1
11 12 1
12 11 1
13 6 1
6 11 1
2 14 1
14 19 1
19 14 1
14 2 1
2 20 1
20 3 1
22 3 1
22 2 1
2 23 1
23 24 1
2 25 1
25 2 1
13 5 1
5 27 1
27 4 1
6 4 1
6 28 1
28 27 1
27 2 1
13 29 1
29 7 1
7 32 1
32 14 1
14 33 1
33 21 1
21 7 1
20 34 1
34 20 1
20 35 1
35 36 1
36 3 1
3 36 1
36 14 1
7 11 1
34 2 1
