27 4 8
4 12 8
12 4 8
17 9 7
42 50 7
50 42 7
53 4 7
9 17 6
4 27 6
4 28 6
29 30 6
4 53 6
19 12 6
59 9 6
9 59 6
32 33 5
47 42 5
22 9 5
9 22 5
12 40 5
22 24 4
28 4 4
30 29 4
33 32 4
4 40 4
42 47 4
4 30 4
40 12 4
16 12 3
20 9 3
22 4 3
40 4 3
48 49 3
49 48 3
22 51 3
51 22 3
33 52 3
52 33 3
12 19 3
28 12 3
9 55 3
30 4 3
40 16 3
8 9 2
9 10 2
11 12 2
13 11 2
9 20 2
22 23 2
23 22 2
24 25 2
25 22 2
24 22 2
4 29 2
35 36 2
39 4 2
42 45 2
45 42 2
42 46 2
33 4 2
4 9 2
42 22 2
54 4 2
4 19 2
12 9 2
12 27 2
27 12 2
55 9 2
12 28 2
56 17 2
57 20 2
20 57 2
59 17 2
16 40 2
61 52 2
51 42 2
1 2 1
2 3 1
3 4 1
4 5 1
5 6 1
6 7 1
7 8 1
10 9 1
10 8 1
9 11 1
12 11 1
12 13 1
11 13 1
11 14 1
14 15 1
15 16 1
12 17 1
17 12 1
12 18 1
18 19 1
19 16 1
12 16 1
16 20 1
20 21 1
21 20 1
20 17 1
17 22 1
25 26 1
26 22 1
22 25 1
27 28 1
30 31 1
31 32 1
33 34 1
34 35 1
36 35 1
36 37 1
37 38 1
38 28 1
28 39 1
4 39 1
40 41 1
41 4 1
28 42 1
42 43 1
43 4 1
4 44 1
44 42 1
46 42 1
46 47 1
42 33 1
9 42 1
42 16 1
16 48 1
48 42 1
22 52 1
52 28 1
28 53 1
4 33 1
33 19 1
12 53 1
53 19 1
12 54 1
4 54 1
54 27 1
27 54 1
9 4 1
19 4 1
12 22 1
27 19 1
9 28 1
19 27 1
12 51 1
51 9 1
55 12 1
28 27 1
27 56 1
17 56 1
17 20 1
9 57 1
57 9 1
9 58 1
58 59 1
17 59 1
17 6 1
6 4 1
30 40 1
40 27 1
28 60 1
60 61 1
52 61 1
52 62 1
62 53 1
53 62 1
62 63 1
63 40 1
40 64 1
64 4 1
4 63 1
63 4 1
4 65 1
65 66 1
66 63 1
63 64 1
64 12 1
4 67 1
67 42 1
42 51 1
42 27 1
30 27 1
9 51 1
51 33 1
4 51 1
4 17 1
9 68 1
