4 3 54
3 4 53
4 7 19
7 4 19
2 3 12
3 2 12
4 2 10
3 20 10
2 4 9
3 23 8
3 16 7
23 3 7
20 3 6
16 3 6
9 2 5
2 9 5
8 3 5
6 4 4
4 6 4
20 8 4
2 23 4
4 23 4
23 4 4
2 6 3
6 2 3
10 2 3
19 20 3
20 2 3
23 2 3
3 10 3
2 24 3
2 33 3
4 33 3
1 2 2
2 8 2
16 2 2
2 20 2
24 3 2
25 2 2
4 27 2
27 7 2
7 27 2
27 2 2
28 29 2
29 4 2
3 8 2
3 31 2
31 3 2
33 2 2
33 4 2
33 3 2
23 36 2
36 23 2
4 5 1
5 4 1
3 5 1
5 2 1
3 6 1
6 3 1
8 9 1
2 10 1
4 11 1
11 4 1
2 12 1
12 13 1
13 14 1
14 3 1
3 15 1
15 2 1
2 17 1
17 18 1
18 3 1
3 19 1
19 3 1
2 19 1
20 19 1
8 19 1
20 21 1
21 2 1
2 22 1
22 23 1
23 25 1
23 22 1
22 2 1
24 22 1
22 4 1
10 26 1
26 4 1
27 4 1
2 27 1
2 28 1
29 28 1
4 29 1
2 16 1
2 30 1
30 2 1
9 4 1
4 20 1
8 2 1
20 32 1
32 3 1
2 34 1
34 25 1
2 35 1
35 4 1
4 37 1
37 4 1
23 1 1
