21 34 52
34 21 51
35 21 34
21 35 32
21 39 30
39 21 30
28 21 21
21 28 20
21 23 13
23 21 13
21 72 11
72 21 11
17 21 10
21 17 9
34 35 8
79 21 8
35 34 6
21 79 6
87 72 5
72 87 5
21 26 4
21 27 4
27 21 4
21 50 4
50 21 4
34 28 4
26 21 3
34 39 3
64 21 3
110 72 3
72 110 3
34 115 3
115 34 3
10 11 2
12 20 2
20 12 2
21 24 2
24 21 2
47 48 2
21 56 2
56 21 2
71 21 2
35 72 2
39 35 2
72 34 2
39 72 2
72 39 2
83 85 2
93 72 2
72 93 2
95 21 2
28 35 2
28 34 2
21 113 2
113 64 2
65 118 2
1 2 1
2 3 1
3 4 1
4 5 1
5 6 1
6 7 1
7 8 1
8 9 1
9 10 1
11 10 1
11 12 1
12 13 1
13 14 1
14 15 1
15 14 1
14 16 1
16 17 1
17 18 1
18 19 1
19 8 1
8 14 1
14 12 1
12 17 1
21 22 1
22 21 1
21 25 1
25 21 1
26 17 1
17 28 1
28 29 1
29 30 1
30 31 1
31 32 1
32 21 1
21 33 1
33 21 1
35 36 1
36 34 1
21 37 1
37 38 1
38 21 1
39 34 1
21 40 1
40 41 1
41 35 1
35 42 1
42 43 1
43 34 1
34 44 1
44 21 1
21 45 1
45 21 1
34 46 1
46 47 1
48 47 1
48 21 1
21 49 1
49 21 1
21 51 1
51 52 1
52 53 1
53 54 1
54 55 1
55 21 1
21 57 1
57 58 1
58 21 1
34 59 1
59 60 1
60 61 1
61 60 1
60 62 1
62 59 1
59 63 1
63 60 1
60 64 1
64 65 1
65 64 1
21 66 1
66 67 1
67 68 1
68 34 1
21 69 1
69 34 1
35 70 1
70 21 1
34 71 1
21 73 1
73 34 1
35 74 1
74 35 1
35 75 1
75 35 1
35 76 1
76 34 1
21 77 1
77 71 1
71 34 1
34 78 1
78 34 1
34 79 1
79 35 1
35 79 1
21 80 1
80 79 1
79 70 1
70 39 1
39 81 1
81 82 1
82 83 1
83 84 1
84 83 1
85 86 1
86 72 1
72 83 1
85 87 1
72 88 1
88 87 1
87 89 1
89 87 1
87 90 1
90 87 1
87 91 1
91 72 1
87 88 1
88 72 1
72 92 1
92 93 1
93 94 1
94 95 1
21 96 1
96 21 1
21 71 1
21 97 1
97 21 1
21 98 1
98 34 1
34 72 1
21 99 1
99 21 1
21 100 1
100 101 1
101 102 1
102 21 1
21 103 1
103 104 1
104 21 1
21 105 1
105 21 1
72 106 1
106 79 1
21 107 1
107 21 1
21 95 1
21 108 1
108 35 1
21 109 1
109 21 1
21 110 1
110 28 1
21 111 1
111 21 1
21 112 1
112 21 1
64 114 1
114 21 1
21 64 1
21 116 1
116 28 1
28 117 1
117 34 1
21 65 1
118 65 1
118 119 1
119 35 1
34 120 1
120 34 1
34 121 1
121 34 1
35 122 1
122 72 1
72 123 1
123 72 1
72 113 1
113 72 1
72 124 1
124 125 1
125 126 1
126 72 1
72 127 1
127 21 1
21 128 1
128 21 1
21 129 1
129 130 1
130 131 1
