14 5 31
5 14 31
20 29 31
29 20 28
13 5 25
5 13 24
20 33 22
33 20 21
28 5 13
5 28 12
5 10 11
5 31 11
31 5 11
10 5 10
9 5 9
5 9 8
16 13 7
15 5 5
20 27 5
27 20 5
5 15 4
13 16 4
5 16 4
20 21 4
20 22 4
32 20 4
33 32 4
10 9 3
21 20 3
22 20 3
20 25 3
25 20 3
26 20 3
30 20 3
32 33 3
10 11 2
11 10 2
9 10 2
12 5 2
5 12 2
16 5 2
13 20 2
25 22 2
22 25 2
20 30 2
33 29 2
29 33 2
1 2 1
2 3 1
3 4 1
4 3 1
3 5 1
5 3 1
3 6 1
6 7 1
7 8 1
8 6 1
6 9 1
5 11 1
11 5 1
9 12 1
12 6 1
6 5 1
5 8 1
8 13 1
13 14 1
14 15 1
15 16 1
16 15 1
15 17 1
17 15 1
5 18 1
18 13 1
13 19 1
19 16 1
21 22 1
22 23 1
23 24 1
24 22 1
22 24 1
24 20 1
22 26 1
20 28 1
28 14 1
14 26 1
20 26 1
29 30 1
29 28 1
29 32 1
20 32 1
20 34 1
34 32 1
