25 33 107
33 25 101
25 30 26
6 7 25
7 6 25
17 25 22
30 25 21
25 17 16
29 25 13
49 25 12
25 29 10
25 49 10
25 60 8
60 25 8
6 25 7
25 6 7
29 30 7
17 16 6
30 29 6
33 49 6
16 17 5
25 7 5
7 25 5
25 43 5
30 17 5
33 17 5
16 58 5
3 5 4
5 3 4
26 27 4
43 25 4
49 33 4
30 33 4
58 16 4
3 6 3
6 3 3
7 18 3
18 6 3
27 26 3
36 25 3
17 30 3
33 46 3
48 47 3
23 29 3
33 54 3
54 55 3
25 16 3
33 70 3
6 5 2
5 8 2
8 3 2
6 18 2
18 7 2
25 26 2
27 25 2
25 27 2
25 42 2
42 25 2
44 25 2
43 45 2
45 25 2
45 43 2
46 25 2
25 46 2
46 33 2
47 48 2
25 48 2
25 51 2
51 33 2
29 23 2
33 30 2
54 33 2
55 54 2
16 25 2
25 67 2
25 68 2
68 25 2
33 43 2
70 71 2
70 33 2
1 2 1
2 3 1
3 4 1
4 3 1
3 7 1
8 5 1
3 8 1
3 9 1
9 10 1
10 11 1
11 12 1
12 13 1
13 14 1
14 6 1
5 15 1
15 16 1
17 18 1
18 17 1
16 7 1
6 19 1
19 18 1
18 20 1
20 21 1
21 18 1
18 22 1
22 23 1
23 24 1
24 25 1
26 25 1
25 28 1
28 29 1
25 31 1
31 25 1
25 32 1
32 25 1
33 34 1
34 25 1
33 35 1
35 33 1
33 36 1
33 37 1
37 25 1
27 38 1
38 39 1
39 40 1
40 41 1
41 25 1
43 44 1
25 44 1
25 45 1
43 29 1
25 36 1
46 47 1
47 18 1
18 48 1
47 25 1
48 25 1
48 33 1
25 50 1
50 49 1
33 45 1
25 52 1
52 51 1
51 25 1
33 29 1
30 53 1
53 25 1
55 33 1
16 33 1
25 56 1
56 57 1
57 56 1
56 25 1
58 33 1
25 23 1
30 23 1
23 25 1
30 59 1
59 25 1
25 61 1
61 25 1
60 54 1
54 60 1
25 59 1
59 17 1
25 62 1
62 63 1
63 64 1
64 65 1
65 28 1
28 23 1
23 66 1
66 23 1
23 30 1
67 25 1
67 6 1
68 6 1
6 69 1
69 68 1
7 5 1
5 36 1
43 33 1
71 70 1
71 33 1
25 72 1
72 25 1
25 71 1
71 25 1
17 33 1
25 73 1
73 74 1
74 16 1
16 75 1
75 25 1
49 76 1
