1666677 1664023
1666677 1663407
1666677 1666696
1666677 1666724
1666677 1666087
1666677 1663530
1666677 1663468
1664023 1666403
1664023 1667485
1664023 1665282
1664023 1669096
1664023 1668959
1664023 1663524
1664023 1667388
1664023 1664028
1664023 1665279
1664023 1666724
1664023 1667281
1664023 1670029
1664023 1666087
1664023 1670284
1664023 1666757
1664023 1667419
1664023 1666762
1664023 1663551
1664023 1664987
1664023 1663530
1664023 1663407
1664023 1663468
1664023 1663856
1664023 1666696
1664023 1666413
1664023 1669424
1664023 1667600
1664023 1666837
1664023 1669385
1664023 1668475
1664023 1667882
1664023 1670115
1663407 1668201
1663407 1663551
1663407 1663530
1663407 1670785
1663407 1665731
1663407 1668959
1663407 1663524
1663407 1670854
1663407 1670452
1663407 1666724
1663407 1670029
1663407 1666087
1663407 1667419
1663407 1663457
1663407 1663468
1663407 1671467
1663407 1666696
1663407 1666413
1663407 1669424
1663407 1669096
1663407 1671505
1663407 1670115
1666696 1663530
1666696 1663468
1666696 1666724
1666696 1666087
1666724 1663530
1666724 1663468
1666724 1666087
1666087 1663551
1666087 1664987
1666087 1668737
1666087 1663530
1666087 1671038
1666087 1670785
1666087 1663468
1666087 1670053
1666087 1668778
1666087 1668740
1666087 1669424
1666087 1666837
1666087 1669096
1666087 1668959
1666087 1663524
1666087 1670854
1666087 1670452
1666087 1667281
1666087 1670029
1666087 1666143
1666087 1667419
1666087 1670115
1666087 1667802
1663530 1663551
1663530 1665282
1663530 1664987
1663530 1663457
1663530 1670785
1663530 1663468
1663530 1669424
1663530 1668959
1663530 1663524
1663530 1670854
1663530 1665279
1663530 1667419
1663530 1663856
1663530 1669096
1663530 1667882
1663468 1666403
1663468 1667485
1663468 1663551
1663468 1665282
1663468 1664987
1663468 1668737
1663468 1671038
1663468 1663461
1663468 1669464
1663468 1663457
1663468 1670785
1663468 1663856
1663468 1668778
1663468 1665731
1663468 1666837
1663468 1665011
1663468 1669096
1663468 1669385
1663468 1663698
1663468 1669677
1663468 1671305
1663468 1667388
1663468 1670452
1663468 1663688
1663468 1665279
1663468 1667281
1663468 1670029
1663468 1670284
1663468 1666757
1663468 1666849
1663468 1666143
1663468 1666762
1663468 1670115
1663468 1671467
1663468 1666413
1663468 1668740
1663468 1669424
1663468 1667600
1663468 1665763
1663468 1668959
1663468 1663524
1663468 1671505
1663468 1670854
1663468 1663657
1663468 1664028
1663468 1663749
1663468 1668475
1663468 1667882
1663468 1667419
1663468 1667802
1666403 1667419
1667419 1667485
1667419 1663551
1667419 1663457
1667419 1670785
1667419 1669424
1667419 1663524
1667419 1667388
1667419 1670854
1667419 1670452
1667419 1670029
1667419 1670115
1667485 1663551
1667485 1663524
1667485 1667388
1663551 1663457
1663551 1663856
1663551 1671467
1663551 1666837
1663551 1668959
1663551 1663524
1663551 1671505
1663551 1667388
1663551 1667281
1663551 1667882
1663551 1664987
1663551 1665011
1663551 1669096
1663551 1670854
1663551 1670452
1663524 1665282
1663524 1664987
1663524 1663457
1663524 1663856
1663524 1665731
1663524 1666837
1663524 1665011
1663524 1669096
1663524 1668959
1663524 1667388
1663524 1665279
1663524 1667281
1663524 1667882
1665282 1664987
1665282 1663856
1665282 1665279
1669096 1668959
1665279 1664987
1665279 1663856
1667281 1664987
1667281 1666837
1670029 1669424
1670029 1670115
1666757 1666762
1664987 1663461
1664987 1663457
1664987 1663856
1664987 1666837
1664987 1665011
1664987 1667882
1663856 1663457
1669424 1669464
1669424 1670785
1669424 1670854
1669424 1670115
1666837 1663457
1666837 1666849
1666837 1665011
1666837 1667882
1667882 1663457
1667882 1665011
1663457 1663461
1663457 1665011
1671467 1665011
1671467 1671505
1671467 1670854
1671467 1670452
1671505 1665011
1671505 1670854
1671505 1670452
1665011 1663461
1665011 1670854
1665011 1670452
1670854 1671038
1670854 1670785
1670854 1670452
1670452 1671038
1668737 1668778
1668737 1668740
1668778 1668740
