1656916 1655925
1656916 1662154
1656916 1656955
1656916 1662272
1656916 1660411
1656916 1656690
1656916 1656049
1656916 1657369
1656916 1656987
1656916 1656127
1655925 1655929
1655925 1661183
1655925 1656049
1655925 1657190
1655925 1661247
1655925 1659615
1655925 1659619
1655925 1659957
1655925 1659574
1655925 1659569
1655925 1659591
1655925 1659578
1655925 1655991
1655925 1655971
1655925 1661880
1655925 1655935
1655925 1662705
1655925 1656127
1655925 1656690
1655925 1661014
1655925 1656194
1655925 1655900
1662154 1657369
1662154 1656049
1662154 1662272
1656955 1659755
1656955 1656049
1656955 1656987
1656955 1656194
1656955 1656127
1662272 1656049
1662272 1657369
1660411 1656049
1660411 1657369
1656690 1657210
1656690 1656049
1656690 1657190
1656690 1655971
1656690 1661880
1656690 1663123
1656690 1663013
1656690 1662705
1656690 1656127
1656690 1656194
1656690 1661014
1656690 1658250
1656049 1655929
1656049 1661183
1656049 1660791
1656049 1657891
1656049 1657636
1656049 1658181
1656049 1662613
1656049 1662659
1656049 1659120
1656049 1656533
1656049 1661323
1656049 1659755
1656049 1660054
1656049 1657394
1656049 1659164
1656049 1655971
1656049 1658190
1656049 1661247
1656049 1659615
1656049 1661880
1656049 1656987
1656049 1660958
1656049 1655935
1656049 1661354
1656049 1656486
1656049 1662705
1656049 1655900
1656049 1656056
1656049 1655991
1656049 1660310
1656049 1657996
1656049 1657369
1656049 1659957
1656049 1656079
1656049 1663013
1656049 1656460
1656049 1656127
1656049 1656224
1656049 1661014
1656049 1656194
1656049 1662925
1656049 1658250
1657369 1657891
1657369 1662613
1657369 1662659
1657369 1659957
1657369 1656194
1657369 1656079
1657369 1656127
1656987 1656127
1656127 1657636
1656127 1662613
1656127 1662659
1656127 1659120
1656127 1659164
1656127 1658190
1656127 1656079
1656127 1656224
1656127 1658250
1656127 1656194
1655929 1655991
1655929 1655971
1655929 1661247
1655929 1659615
1655929 1655935
1655929 1661183
1655929 1659957
1655929 1655900
1655991 1655971
1655991 1655935
1655991 1655900
1655971 1658250
1655971 1661880
1655971 1655935
1655971 1661014
1655971 1655900
1661247 1661183
1661247 1659615
1661247 1659957
1659615 1661183
1659615 1657190
1659615 1659619
1659615 1659957
1659615 1659574
1659615 1659569
1659615 1659591
1659615 1659578
1655935 1655900
1661183 1659957
1659957 1657891
1659957 1656079
1659957 1656194
1655900 1655880
1657210 1657190
1657210 1657226
1657210 1657218
1657190 1659619
1657190 1657226
1657190 1659574
1657190 1663307
1657190 1657218
1657190 1659569
1657190 1659591
1657190 1659578
1657226 1657218
1660791 1660958
1660958 1657891
1660958 1661955
1660958 1657888
1661843 1656079
1661843 1658010
1661843 1661826
1661843 1661835
1656079 1661826
1656079 1661835
1656079 1658010
1656079 1656224
1656079 1656194
1658010 1661826
1658010 1661835
1658010 1658016
1658010 1658020
1658010 1658028
1658010 1658036
1661826 1661835
1657891 1657526
1657891 1661955
1657891 1658016
1657891 1658020
1657891 1658028
1657891 1658036
1657891 1660231
1657891 1656194
1657891 1657888
1657891 1657529
1657891 1656224
1657526 1657553
1657526 1657529
1657526 1657888
1661955 1657888
1658016 1658020
1658016 1658028
1658016 1658036
1658016 1660231
1658016 1657888
1658020 1658028
1658020 1658036
1658020 1660231
1658020 1657888
1658028 1658036
1658028 1660231
1658028 1657888
1658036 1660231
1658036 1657888
1660231 1657888
1656194 1659755
1656194 1658190
1656194 1661880
1656194 1663013
1656194 1656224
1656194 1661014
1656194 1657888
1656194 1658250
1657888 1656224
1657888 1657529
1657529 1657553
1662613 1662659
1658684 1657394
1659120 1659164
1659120 1658190
1659164 1658190
1656533 1656486
1656533 1656460
1656486 1656460
1661323 1661354
1659619 1659574
1659619 1659569
1659619 1659591
1659619 1659578
1659574 1659591
1659574 1659578
1659574 1659569
1659569 1659591
1659569 1659578
1659591 1659578
1661880 1663013
1661880 1661014
1662705 1661014
1661014 1663013
1661014 1658250
