1628391 1629425
1628391 1630026
1628391 1628483
1628391 1626594
1628391 1631054
1628391 1626884
1628391 1626540
1628391 1628489
1628391 1626452
1628391 1626880
1629425 1631792
1629425 1630026
1629425 1626540
1629425 1626452
1629425 1626594
1630026 1629205
1630026 1630016
1630026 1629195
1630026 1626540
1630026 1626452
1630026 1626594
1628483 1626540
1628483 1628489
1628483 1626594
1628483 1626452
1628483 1631054
1626594 1626540
1626594 1628489
1626594 1626452
1626594 1626775
1626594 1626884
1626594 1631054
1626594 1632074
1631054 1626540
1631054 1626452
1626884 1626540
1626884 1626880
1626540 1630477
1626540 1632820
1626540 1627900
1626540 1629205
1626540 1629195
1626540 1627071
1626540 1632788
1626540 1626880
1626540 1626550
1626540 1627784
1626540 1626452
1626540 1628676
1626540 1627808
1626540 1628070
1626540 1627712
1626540 1630097
1626452 1630477
1626452 1631792
1626452 1632820
1626452 1627900
1626452 1629205
1626452 1626500
1626452 1629195
1626452 1627204
1626452 1627194
1626452 1627071
1626452 1632788
1626452 1626880
1626452 1626775
1626452 1627784
1626452 1627712
1626452 1626459
1626452 1632074
1626452 1627808
1626452 1628070
1626452 1631581
1626880 1627545
1630477 1632820
1627900 1627808
1627808 1627784
1627808 1627712
1629205 1630016
1629205 1629189
1629205 1629195
1630016 1629195
1629189 1629195
1627204 1627194
1627784 1627712
1630097 1630100
