1608513 1610300
1608513 1612980
1608513 1609065
1608513 1612662
1608513 1611177
1608513 1608221
1608513 1610156
1608513 1608215
1608513 1608193
1608513 1608893
1608513 1610590
1608513 1609308
1608513 1608606
1608513 1612047
1608513 1609102
1608513 1608821
1608513 1612810
1608513 1608713
1608513 1610012
1608513 1609603
1608513 1612434
1608513 1612645
1608513 1608642
1608513 1609257
1608513 1608544
1608513 1609608
1608513 1610200
1608513 1612868
1608513 1609471
1608513 1609468
1608513 1609447
1608513 1609797
1610300 1609257
1610300 1609797
1612980 1612868
1609065 1608544
1609065 1610590
1609065 1608606
1609065 1609102
1609065 1608821
1609065 1608215
1609065 1608193
1609065 1609797
1609065 1608642
1612662 1612142
1612662 1611177
1612662 1612868
1612662 1612810
1612662 1612645
1611177 1608544
1611177 1612645
1611177 1612868
1611177 1608193
1611177 1608713
1611177 1608642
1608221 1609257
1608221 1608544
1608221 1609608
1608221 1610200
1608221 1608215
1608221 1609471
1608221 1609468
1608221 1608193
1608221 1608893
1608221 1609447
1608221 1608606
1608221 1609797
1608221 1608821
1608221 1608713
1608221 1608960
1608221 1608642
1608221 1609024
1608221 1608189
1608221 1610590
1608221 1609308
1608221 1609102
1608221 1609029
1608221 1612434
1610156 1609797
1608215 1609257
1608215 1608544
1608215 1612868
1608215 1609024
1608215 1609468
1608215 1608193
1608215 1608893
1608215 1609447
1608215 1610590
1608215 1609308
1608215 1609797
1608215 1608821
1608215 1609603
1608215 1612434
1608215 1608642
1608215 1609424
1608215 1608189
1608215 1609471
1608215 1608606
1608215 1608713
1608215 1609029
1608193 1608544
1608193 1608189
1608193 1609471
1608193 1609468
1608193 1608893
1608193 1608606
1608193 1609797
1608193 1608713
1608193 1609447
1608193 1610590
1608193 1609102
1608193 1608821
1608193 1608642
1608193 1609424
1608893 1608544
1608893 1609471
1608893 1609468
1608893 1609447
1608893 1610590
1608893 1608606
1608893 1609102
1608893 1608821
1608893 1608713
1608893 1608642
1610590 1608544
1610590 1609471
1610590 1609468
1610590 1609447
1610590 1612047
1610590 1609603
1610590 1608642
1610590 1608606
1610590 1609102
1610590 1608821
1610590 1608713
1609308 1608544
1609308 1609024
1609308 1612434
1609308 1609029
1608606 1608544
1608606 1609471
1608606 1609468
1608606 1609447
1608606 1612047
1608606 1609797
1608606 1609102
1608606 1608821
1608606 1608713
1608606 1609603
1608606 1608642
1612047 1609603
1609102 1608544
1609102 1608642
1608821 1608544
1608821 1608841
1608821 1609471
1608821 1609468
1608821 1609447
1608821 1608713
1608821 1608642
1612810 1612645
1608713 1608544
1608713 1609471
1608713 1609468
1608713 1609447
1608713 1609797
1608713 1608719
1608713 1608642
1608713 1608731
1608713 1608707
1609603 1609257
1609603 1608544
1609603 1609608
1609603 1609447
1609603 1608707
1609603 1608719
1612645 1612868
1608642 1608544
1608642 1609471
1608642 1609468
1608642 1609447
1608642 1609797
1609257 1609797
1609257 1608544
1609257 1610200
1608544 1609608
1608544 1609797
1608544 1609471
1608544 1609468
1608544 1609447
1609608 1609447
1609471 1609468
1609471 1609797
1609471 1609447
1609468 1609447
1609024 1609029
1608719 1608707
1608719 1608731
1608731 1608707
