1555861 1556112
1555861 1555900
1555861 1556664
1555861 1555833
1555861 1556759
1555861 1556752
1555861 1555596
1555861 1555836
1555861 1555894
1555861 1555600
1555861 1557094
1555861 1555521
1555861 1557435
1555861 1555551
1555861 1555592
1556112 1555900
1556112 1557094
1556112 1556072
1556112 1555521
1556112 1555833
1556112 1555547
1556112 1556062
1556112 1555596
1556112 1555836
1556112 1555894
1556112 1556082
1556112 1555600
1556112 1555551
1556112 1555592
1555900 1555833
1555900 1555551
1555900 1556759
1555900 1556752
1555900 1555836
1555900 1556664
1555900 1557094
1555900 1555521
1555900 1557435
1555900 1555894
1556664 1555521
1556664 1555551
1556664 1556759
1556664 1556752
1556664 1555836
1556664 1555833
1555833 1557094
1555833 1555521
1555833 1557435
1555833 1555551
1555833 1556759
1555833 1556752
1555833 1555894
1555833 1555836
1556759 1555521
1556759 1557435
1556759 1559950
1556759 1555942
1556759 1555551
1556759 1559947
1556759 1556752
1556759 1559964
1556759 1559941
1556759 1555596
1556759 1555836
1556759 1555592
1556759 1557033
1556759 1556030
1556759 1555600
1556752 1556072
1556752 1555521
1556752 1557435
1556752 1559950
1556752 1556062
1556752 1555551
1556752 1559947
1556752 1556082
1556752 1559964
1556752 1559941
1556752 1555836
1556752 1555592
1555596 1555521
1555596 1555547
1555596 1555942
1555596 1555551
1555596 1555894
1555596 1555592
1555596 1557033
1555596 1556030
1555596 1555600
1555836 1557094
1555836 1555521
1555836 1557435
1555836 1555551
1555836 1555894
1555894 1555942
1555894 1555551
1555894 1555600
1555894 1555592
1555600 1555521
1555600 1555547
1555600 1555942
1555600 1555466
1555600 1555551
1555600 1555592
1555600 1557033
1555600 1556030
1555600 1555502
1555521 1556072
1555521 1559950
1555521 1555942
1555521 1558789
1555521 1556062
1555521 1555551
1555521 1559947
1555521 1556283
1555521 1556082
1555521 1559964
1555521 1559941
1555521 1557435
1555521 1555547
1555521 1555466
1555521 1555669
1555521 1555592
1555521 1556030
1557435 1559950
1557435 1558789
1557435 1555551
1557435 1559947
1557435 1559964
1557435 1559941
1555551 1559950
1555551 1555547
1555551 1555942
1555551 1555466
1555551 1555669
1555551 1556283
1555551 1557033
1555551 1555502
1555551 1559947
1555551 1556326
1555551 1560163
1555551 1555592
1555551 1559964
1555551 1556030
1555551 1559941
1555592 1555547
1555592 1555942
1555592 1556283
1555592 1557033
1555592 1556030
1556072 1556062
1556072 1555942
1556072 1556082
1555547 1555669
1556062 1555942
1556062 1556082
1556082 1555942
1555942 1557033
1555942 1556030
1559950 1559964
1559950 1559947
1559950 1559941
1559947 1559964
1559947 1559941
1559964 1559941
1555466 1555669
1555466 1556030
1555466 1555502
1555669 1560163
1555669 1556030
1556030 1557033
