1542733 1546657
1542733 1542824
1542733 1543213
1542733 1543305
1542733 1542815
1542733 1548380
1542733 1546160
1542733 1542897
1542733 1547646
1542733 1545315
1542733 1542552
1542733 1542744
1542733 1542694
1542733 1543017
1542733 1544888
1542733 1542639
1542733 1543548
1542733 1545352
1542733 1542731
1542733 1542633
1542733 1544098
1542733 1545187
1546657 1545315
1546657 1543213
1546657 1542552
1546657 1542694
1542824 1543017
1542824 1542897
1542824 1542552
1542824 1542694
1542824 1542639
1542824 1542815
1542824 1542731
1542824 1542633
1542824 1542744
1543213 1543017
1543213 1544888
1543213 1543305
1543213 1543548
1543213 1542815
1543213 1542633
1543213 1544982
1543213 1548380
1543213 1544098
1543213 1545315
1543213 1543250
1543213 1542744
1543213 1545187
1543213 1542694
1543213 1544471
1543213 1545352
1543213 1546160
1543213 1547024
1543213 1546739
1543213 1542552
1543305 1543017
1543305 1544024
1543305 1544888
1543305 1543473
1543305 1543548
1543305 1542633
1543305 1545352
1543305 1548380
1543305 1546160
1543305 1544098
1543305 1544761
1543305 1545315
1543305 1542552
1542815 1542639
1542815 1542897
1542815 1543250
1542815 1542744
1542815 1542731
1542815 1542633
1542815 1542552
1542815 1542694
1548380 1545315
1548380 1546160
1548380 1542552
1546160 1543017
1546160 1544888
1546160 1543548
1546160 1545352
1546160 1542633
1546160 1546132
1546160 1545315
1546160 1544098
1546160 1542552
1546160 1543590
1542897 1542639
1542897 1542731
1542897 1542633
1542897 1542552
1542897 1542744
1542897 1542694
1545315 1544888
1545315 1545352
1545315 1542552
1545315 1542694
1542552 1543017
1542552 1544223
1542552 1544339
1542552 1545443
1542552 1544024
1542552 1544888
1542552 1547090
1542552 1542639
1542552 1544419
1542552 1544834
1542552 1543473
1542552 1542615
1542552 1543693
1542552 1543548
1542552 1544471
1542552 1545352
1542552 1542731
1542552 1544436
1542552 1542633
1542552 1542550
1542552 1544982
1542552 1547024
1542552 1546132
1542552 1544336
1542552 1544098
1542552 1544761
1542552 1545535
1542552 1545276
1542552 1546739
1542552 1545187
1542552 1547077
1542552 1542557
1542552 1542694
1542552 1543590
1542552 1542744
1542552 1546829
1542744 1542639
1542744 1542731
1542744 1542633
1542744 1543250
1542744 1542694
1542694 1543017
1542694 1542639
1542694 1542731
1542694 1542633
1543017 1542633
1543017 1544888
1543017 1543548
1543017 1545352
1543017 1546132
1543017 1544098
1543017 1543590
1544888 1543548
1544888 1545352
1544888 1544098
1544888 1545187
1544888 1544834
1544888 1542633
1544888 1544982
1544888 1546132
1542639 1542731
1542639 1542633
1543548 1542633
1543548 1545352
1543548 1544098
1543548 1543590
1545352 1544098
1542731 1542633
1542633 1544339
1542633 1544419
1542633 1544834
1542633 1543473
1542633 1544436
1542633 1544098
1542633 1544982
1542633 1546132
1542633 1544336
1542633 1543590
1544098 1544834
1544098 1544982
1544098 1547024
1544098 1545187
1546132 1543590
1543590 1543693
1543590 1545276
1544339 1544419
1544339 1544436
1544339 1544336
1544339 1545535
1544419 1544436
1544419 1544336
1544436 1544336
1544336 1545535
1545443 1544982
1544982 1546739
1544982 1546829
1547090 1547077
1542550 1542557
