1514711 1515516
1514711 1514622
1514711 1514681
1514711 1514699
1514711 1514694
1514711 1520442
1514711 1514702
1515516 1515479
1515516 1516106
1515516 1514681
1515516 1514699
1515516 1514694
1515516 1514622
1515516 1520442
1515516 1514702
1514622 1515479
1514622 1515272
1514622 1514803
1514622 1514826
1514622 1516277
1514622 1514681
1514622 1514699
1514622 1517741
1514622 1514694
1514622 1514702
1514622 1518010
1514622 1515344
1514681 1519162
1514681 1515479
1514681 1516962
1514681 1518215
1514681 1516742
1514681 1516106
1514681 1519307
1514681 1516845
1514681 1514803
1514681 1514557
1514681 1515745
1514681 1518713
1514681 1514826
1514681 1516277
1514681 1515140
1514681 1519288
1514681 1516678
1514681 1517439
1514681 1515783
1514681 1517546
1514681 1520442
1514681 1520560
1514681 1514699
1514681 1516733
1514681 1517741
1514681 1514694
1514681 1516383
1514681 1518096
1514681 1514702
1514699 1515479
1514699 1516962
1514699 1515272
1514699 1516742
1514699 1519307
1514699 1516845
1514699 1514803
1514699 1514557
1514699 1514826
1514699 1516277
1514699 1514694
1514699 1519288
1514699 1516678
1514699 1517439
1514699 1515344
1514699 1516733
1514699 1517741
1514699 1516383
1514699 1518010
1514699 1520442
1514699 1520560
1514699 1514702
1514694 1515479
1514694 1516962
1514694 1519680
1514694 1519719
1514694 1516742
1514694 1516106
1514694 1519307
1514694 1516845
1514694 1514803
1514694 1515745
1514694 1514826
1514694 1515140
1514694 1516733
1514694 1517741
1514694 1519288
1514694 1516678
1514694 1517439
1514694 1515783
1514694 1518593
1514694 1520442
1514694 1518537
1514694 1518509
1514694 1514702
1520442 1514702
1514702 1515479
1514702 1516106
1514702 1519307
1514702 1518453
1514702 1516845
1514702 1514803
1514702 1514557
1514702 1515745
1514702 1514826
1514702 1515140
1514702 1517741
1514702 1518367
1514702 1519288
1514702 1516678
1514702 1517439
1514702 1515783
1514702 1518096
1514702 1517546
1514702 1520560
1519162 1518713
1518713 1518215
1516962 1516678
1516962 1516742
1516962 1516845
1516962 1516733
1516678 1516742
1516678 1516845
1516678 1516733
1516742 1516845
1516742 1516733
1516845 1519680
1516845 1519719
1516845 1517439
1516845 1516733
1519680 1519719
1515272 1518042
1515272 1518051
1515272 1518010
1515272 1515344
1518042 1518051
1519307 1520193
1519307 1520178
1519307 1519288
1520193 1520178
1518453 1518367
1514803 1514826
1514557 1520560
1515745 1515783
1516277 1516383
1518593 1518537
1518537 1518509
