1470803 1470833
1470803 1468359
1470803 1470844
1470833 1470844
1470833 1468359
1468359 1466857
1468359 1470200
1468359 1470844
1468359 1466166
1468359 1467646
1466441 1466450
1466441 1466456
1466441 1469823
1466441 1465970
1466441 1465741
1466441 1466166
1466441 1466126
1466450 1466456
1466450 1469720
1466450 1466166
1466450 1466126
1466450 1465970
1466456 1469720
1466456 1465741
1466456 1466166
1466456 1466126
1466456 1467544
1466456 1465970
1469823 1465741
1465970 1466857
1465970 1469257
1465970 1472399
1465970 1468012
1465970 1465741
1465970 1466126
1465970 1469695
1465970 1465880
1465970 1467646
1465970 1466166
1465970 1467544
1465741 1466857
1465741 1472399
1465741 1465800
1465741 1469659
1465741 1470461
1465741 1470100
1465741 1470369
1465741 1468969
1465741 1465880
1465741 1467646
1465741 1465819
1465741 1468965
1465741 1466166
1465741 1466126
1466166 1468136
1466166 1466846
1466166 1468094
1466166 1466857
1466166 1468012
1466166 1471290
1466166 1469221
1466166 1468965
1466166 1468969
1466166 1468973
1466166 1468978
1466166 1471302
1466166 1468019
1466166 1468265
1466166 1468067
1466166 1469695
1466166 1465880
1466166 1466126
1466166 1467544
1466166 1467646
1466126 1469720
1466126 1470393
1466126 1467544
1469720 1467544
1468136 1468094
1466846 1466857
1466857 1468265
1466857 1467646
1466857 1470200
1466857 1467544
1466857 1465880
1467646 1468012
1467646 1471203
1467646 1471213
1467646 1468019
1467646 1467544
1465880 1465888
1465880 1469257
1465880 1465911
1465880 1465915
1465880 1465926
1465880 1465938
1465888 1465911
1465888 1465915
1465888 1465926
1465888 1465938
1465911 1465915
1465911 1465926
1465911 1465938
1465915 1465926
1465915 1465938
1465926 1465938
1468012 1468019
1465800 1465819
1471203 1471213
1471290 1471302
1469659 1468965
1469659 1468969
1468965 1468969
1468965 1468973
1468965 1468978
1468969 1468973
1468969 1468978
1468973 1468978
