1458637 1458629
1458637 1460145
1458637 1459030
1458637 1460374
1458637 1459461
1458637 1459259
1458637 1458910
1458637 1460357
1458637 1459335
1458637 1462328
1458637 1458755
1458637 1458906
1458637 1459033
1458637 1460032
1458637 1459576
1458629 1459259
1458629 1458755
1460145 1459259
1460145 1458910
1460145 1459030
1460145 1460357
1460145 1459335
1460145 1458906
1460145 1458755
1460145 1459033
1460145 1460032
1460145 1459461
1460145 1459576
1459030 1459088
1459030 1459259
1459030 1458910
1459030 1459335
1459030 1459461
1459030 1460440
1459030 1458755
1459030 1458906
1459030 1459033
1459030 1460032
1459030 1459576
1460374 1460357
1460374 1458755
1460374 1459461
1459461 1459259
1459461 1458910
1459461 1460357
1459461 1459335
1459461 1462328
1459461 1458755
1459461 1458906
1459461 1459033
1459461 1460032
1459461 1459576
1459259 1458755
1459259 1458906
1459259 1458910
1459259 1460357
1459259 1459335
1459259 1459033
1459259 1460032
1459259 1459576
1458910 1460357
1458910 1459335
1458910 1458755
1458910 1458906
1458910 1459033
1458910 1460032
1458910 1459576
1460357 1458906
1460357 1459335
1460357 1458755
1460357 1459033
1460357 1460032
1460357 1459576
1459335 1458906
1459335 1459576
1459335 1459033
1459335 1460440
1458755 1459033
1458755 1460032
1458755 1458906
1458755 1459576
1458906 1459033
1458906 1460032
1458906 1459576
1459033 1459088
1459033 1460032
1459033 1459576
1459033 1460440
1460032 1459576
