1457687 1452963
1457687 1453141
1457687 1453034
1457687 1457530
1457687 1453026
1452963 1453071
1452963 1453149
1452963 1453177
1452963 1456240
1452963 1453141
1452963 1453193
1452963 1452945
1452963 1453034
1452963 1453043
1452963 1453514
1452963 1456247
1452963 1453026
1452963 1453062
1452963 1453120
1452963 1453461
1452963 1452925
1452963 1453402
1452963 1452900
1452963 1453002
1452963 1453008
1452963 1452906
1452963 1457530
1452963 1453130
1452963 1452918
1452963 1453021
1453141 1453071
1453141 1455401
1453141 1455408
1453141 1456369
1453141 1453149
1453141 1453177
1453141 1453722
1453141 1453725
1453141 1453633
1453141 1453062
1453141 1457169
1453141 1456417
1453141 1453120
1453141 1455432
1453141 1453461
1453141 1453402
1453141 1453778
1453141 1452945
1453141 1453034
1453141 1453043
1453141 1453514
1453141 1453130
1453141 1453021
1453141 1453026
1453141 1453193
1453141 1452900
1453141 1453002
1453141 1453008
1453141 1453719
1453141 1457530
1453141 1456362
1453034 1453071
1453034 1453149
1453034 1453177
1453034 1453062
1453034 1453120
1453034 1453461
1453034 1453193
1453034 1452900
1453034 1453002
1453034 1452945
1453034 1457789
1453034 1453130
1453034 1453021
1453034 1453026
1453034 1453008
1453034 1453043
1453034 1453514
1453034 1457530
1457530 1453177
1457530 1457522
1457530 1453461
1457530 1453026
1453026 1453071
1453026 1453149
1453026 1453177
1453026 1453062
1453026 1453120
1453026 1453193
1453026 1452900
1453026 1453002
1453026 1452945
1453026 1453008
1453026 1453043
1453026 1453130
1453026 1453021
1453071 1453043
1453071 1453514
1453071 1453149
1453071 1453177
1453071 1453062
1453071 1453120
1453071 1453461
1453071 1453402
1453071 1453193
1453071 1452900
1453071 1453002
1453071 1452945
1453071 1453008
1453071 1453130
1453071 1453021
1453043 1455401
1453043 1455408
1453043 1453149
1453043 1453177
1453043 1453633
1453043 1453062
1453043 1456240
1453043 1453120
1453043 1453461
1453043 1453402
1453043 1453193
1453043 1452900
1453043 1453002
1453043 1452945
1453043 1453008
1453043 1457789
1453043 1453514
1453043 1453130
1453043 1456247
1453043 1453021
1453514 1455401
1453514 1455408
1453514 1455414
1453514 1453149
1453514 1453177
1453514 1453633
1453514 1456240
1453514 1453120
1453514 1455432
1453514 1453461
1453514 1453402
1453514 1453193
1453514 1453130
1453514 1456247
1453514 1453021
1453149 1455401
1453149 1455408
1453149 1453120
1453149 1453402
1453149 1452945
1453149 1453130
1453149 1453021
1453149 1453177
1453149 1453633
1453149 1453062
1453149 1456240
1453149 1453461
1453149 1453193
1453149 1452900
1453149 1453002
1453149 1453008
1453149 1456247
1453177 1455401
1453177 1455408
1453177 1455414
1453177 1453725
1453177 1457522
1453177 1456240
1453177 1453120
1453177 1453461
1453177 1453402
1453177 1452945
1453177 1453130
1453177 1453021
1453177 1453633
1453177 1453062
1453177 1455432
1453177 1453193
1453177 1452900
1453177 1453002
1453177 1453008
1453177 1456247
1453062 1453120
1453062 1453193
1453062 1452900
1453062 1453130
1453062 1453002
1453062 1452945
1453062 1453008
1453062 1453021
1453120 1453402
1453120 1453130
1453120 1453021
1453120 1453461
1453120 1453193
1453120 1452900
1453120 1453002
1453120 1452945
1453120 1453008
1453461 1455401
1453461 1455408
1453461 1455414
1453461 1453725
1453461 1457522
1453461 1455432
1453461 1453193
1453461 1453130
1453461 1453402
1453461 1452945
1453461 1453021
1453402 1453130
1453402 1452918
1453402 1453021
1453402 1453193
1453193 1455401
1453193 1455408
1453193 1455414
1453193 1453633
1453193 1456240
1453193 1455432
1453193 1452945
1453193 1453130
1453193 1453021
1453193 1452900
1453193 1453002
1453193 1453008
1453193 1456247
1452900 1452925
1452900 1452906
1452900 1453130
1452900 1452918
1452900 1453002
1452900 1452945
1452900 1453008
1452900 1453021
1453002 1452945
1453002 1453008
1453002 1453130
1453002 1453021
1452945 1452925
1452945 1453130
1452945 1453008
1452945 1452906
1452945 1452918
1452945 1453021
1453008 1453130
1453008 1453021
1453130 1453021
1453021 1455401
1453021 1455408
1453021 1453633
1453021 1455432
1455401 1455408
1455401 1455414
1455401 1455432
1455408 1455414
1455408 1455432
1455414 1455432
1456240 1456247
1452925 1452906
1452925 1452918
1452906 1452918
1456369 1453722
1456369 1453725
1456369 1456417
1456369 1456362
1453722 1453725
1453722 1453778
1453722 1453719
1453725 1453778
1453725 1457169
1453725 1453719
1456417 1456362
1453778 1453719
