1323670 1323378
1323670 1326982
1323670 1322303
1323670 1324471
1323670 1327032
1323670 1321690
1323670 1325460
1323670 1321958
1323670 1328109
1323670 1321490
1323670 1323673
1323670 1322443
1323670 1322472
1323670 1322620
1323670 1322117
1323378 1321490
1323378 1323318
1323378 1322303
1323378 1324471
1323378 1321958
1323378 1322620
1326982 1324471
1326982 1327032
1326982 1321958
1322303 1325854
1322303 1321490
1322303 1325873
1322303 1321494
1322303 1325460
1322303 1322117
1322303 1321717
1322303 1323178
1322303 1321690
1322303 1321958
1322303 1322278
1322303 1322472
1322303 1322620
1324471 1321490
1324471 1323318
1324471 1321494
1324471 1321717
1324471 1327032
1324471 1321958
1324471 1322117
1324471 1321690
1324471 1322472
1324471 1322620
1327032 1321958
1321690 1321758
1321690 1322810
1321690 1326044
1321690 1321490
1321690 1321494
1321690 1321717
1321690 1325460
1321690 1322443
1321690 1322614
1321690 1322620
1321690 1321958
1321690 1322278
1321690 1322472
1321690 1322117
1325460 1321490
1325460 1321494
1325460 1321717
1325460 1321958
1325460 1322620
1325460 1322117
1321958 1321758
1321958 1321490
1321958 1321494
1321958 1321717
1321958 1324655
1321958 1322443
1321958 1322278
1321958 1322511
1321958 1322472
1321958 1322620
1321958 1322117
1328109 1322620
1321490 1321758
1321490 1325854
1321490 1323318
1321490 1321717
1321490 1321595
1321490 1322443
1321490 1325873
1321490 1321494
1321490 1322278
1321490 1322511
1321490 1322472
1321490 1322620
1321490 1322117
1322443 1321494
1322443 1321717
1322443 1323345
1322443 1322511
1322443 1322472
1322443 1322620
1322443 1322117
1322472 1321494
1322472 1321717
1322472 1322620
1322472 1322117
1322620 1326083
1322620 1321758
1322620 1322909
1322620 1327985
1322620 1323318
1322620 1328343
1322620 1322633
1322620 1321494
1322620 1321717
1322620 1323345
1322620 1323017
1322620 1323178
1322620 1326099
1322620 1322614
1322620 1322117
1322117 1321758
1322117 1325854
1322117 1325873
1322117 1321494
1322117 1321717
1322117 1324655
1322117 1322278
1322117 1322511
1326083 1326099
1326083 1322614
1326099 1322614
1322614 1322633
1321758 1321494
1321758 1321717
1321494 1326044
1321494 1321717
1321494 1321595
1321494 1322278
1321494 1322511
1321717 1322278
1325854 1325873
1322909 1322633
1322909 1323017
1322633 1323017
1322633 1326854
1323318 1323345
1321595 1323178
1324164 1323210
1324164 1323178
1323210 1323178
1323178 1326943
1323178 1326209
1323178 1328343
