1258171 1257916
1258171 1258177
1258171 1263941
1258171 1259015
1257916 1261403
1257916 1258755
1257916 1262100
1257916 1257996
1257916 1259821
1257916 1259864
1257916 1259476
1257916 1258637
1257916 1258917
1257916 1261451
1257916 1260360
1257916 1262863
1257916 1260819
1257916 1262018
1257916 1258882
1257916 1262540
1257916 1259638
1257916 1263941
1257916 1262904
1257916 1262117
1257916 1264195
1257916 1261654
1257916 1258301
1257916 1264281
1257916 1261228
1257916 1261154
1257916 1259015
1257916 1264084
1257916 1261460
1257916 1261663
1257916 1263628
1257916 1263875
1257916 1263640
1257916 1263392
1257916 1260869
1257916 1261854
1257916 1261857
1257916 1261860
1257916 1261863
1257916 1261866
1257916 1261869
1257916 1261881
1257916 1260289
1257916 1260796
1257916 1260968
1257916 1262805
1257916 1258611
1257916 1260230
1257916 1263782
1257916 1262899
1257916 1262464
1257916 1260520
1257916 1259413
1257916 1264046
1257916 1260899
1257916 1259330
1257916 1262660
1257916 1261320
1257916 1259974
1257916 1258376
1257916 1259894
1258177 1264019
1258177 1258843
1258177 1261512
1263941 1263922
1259015 1260230
1259015 1260899
1259015 1261320
1259015 1260869
1259015 1261854
1259015 1261857
1259015 1261860
1259015 1261863
1259015 1261866
1259015 1261869
1259015 1261881
1261403 1263640
1262100 1262117
1259821 1259864
1259821 1259476
1259821 1259974
1259864 1259476
1259476 1261154
1259476 1259894
1258917 1258882
1261451 1261460
1260360 1262805
1260360 1260230
1262863 1262805
1260819 1260289
1260819 1260796
1260819 1264195
1262018 1260520
1262904 1262805
1262904 1262899
1262904 1262464
1262904 1260899
1261654 1261663
1264281 1261154
1261228 1260520
1264084 1264046
1263392 1262464
1260869 1260520
1260869 1260899
1261854 1261857
1261854 1261860
1261854 1261863
1261854 1261866
1261854 1261869
1261854 1261881
1261857 1261860
1261857 1261863
1261857 1261866
1261857 1261869
1261857 1261881
1261860 1261863
1261860 1261866
1261860 1261869
1261860 1261881
1261863 1261866
1261863 1261869
1261863 1261881
1261866 1261869
1261866 1261881
1261869 1261881
1260289 1260796
1262805 1262899
1258611 1258607
1263782 1258376
1262464 1260899
1260520 1258376
