1208806 1208815
1208806 1208627
1208806 1209084
1208806 1209087
1208806 1209097
1208806 1209250
1208806 1209242
1208815 1214299
1208815 1208627
1208815 1212012
1208815 1208992
1208815 1210197
1208815 1212489
1208815 1212016
1208815 1209250
1208815 1212024
1208815 1209242
1208815 1211432
1208815 1211803
1208815 1209795
1208627 1211211
1208627 1214299
1208627 1215414
1208627 1212012
1208627 1213786
1208627 1210117
1208627 1213420
1208627 1211046
1208627 1212489
1208627 1212016
1208627 1210891
1208627 1211698
1208627 1209250
1208627 1213871
1208627 1212024
1208627 1209242
1208627 1209795
1208627 1211432
1208627 1208594
1208627 1208992
1208627 1209084
1208627 1209087
1208627 1209097
1208627 1211803
1208627 1212814
1208627 1210197
1208627 1213736
1209084 1209087
1209084 1209097
1209084 1209250
1209084 1209242
1209087 1209097
1209087 1209250
1209087 1209242
1209097 1209250
1209097 1209242
1209250 1208992
1209250 1212489
1209250 1211432
1209250 1209242
1209242 1212012
1209242 1211803
1209242 1210197
1209242 1212016
1209242 1212024
1209242 1209795
1211211 1211432
1211211 1211046
1211211 1210197
1211432 1208992
1211432 1211046
1211432 1210197
1211432 1212489
1211046 1210197
1210197 1214299
1210197 1215414
1210197 1212012
1210197 1210117
1210197 1211443
1210197 1208992
1210197 1213420
1210197 1211803
1210197 1210678
1210197 1212814
1210197 1212489
1210197 1212016
1210197 1210689
1210197 1211698
1210197 1212024
1214299 1210678
1214299 1210689
1210678 1210689
1212012 1212016
1212012 1212024
1212012 1211803
1208992 1210849
1208992 1210876
1208992 1209061
1208992 1210117
1208992 1214229
1208992 1213420
1208992 1210895
1208992 1210891
1208992 1212489
1212016 1211803
1212016 1212024
1212024 1211803
1213786 1213871
1213786 1213736
1210117 1213420
1210891 1210849
1210891 1210876
1210891 1210895
1213871 1213736
1210849 1210876
1210849 1210895
1210876 1210895
