1125028 1125567
1125028 1125014
1125028 1126781
1125028 1125025
1125028 1126569
1125028 1125638
1125028 1125238
1125028 1125063
1125028 1124982
1125028 1125285
1125028 1125868
1125028 1127671
1125567 1125014
1125567 1125638
1125567 1125063
1125567 1124982
1125567 1126781
1125567 1125025
1125014 1125063
1125014 1125815
1125014 1124982
1125014 1126781
1125014 1125025
1125014 1127632
1125014 1127671
1125014 1125638
1126781 1125063
1126781 1124982
1126781 1125025
1126781 1128358
1126781 1127671
1126781 1125638
1125025 1125487
1125025 1125418
1125025 1125063
1125025 1125815
1125025 1124982
1125025 1125285
1125025 1126107
1125025 1126168
1125025 1126569
1125025 1128741
1125025 1127671
1125025 1126647
1125025 1127632
1125025 1125638
1126569 1124982
1125638 1125063
1125638 1124982
1125638 1126168
1125638 1128358
1125638 1127671
1125238 1124982
1125238 1125285
1125238 1125230
1125063 1124982
1124982 1125815
1124982 1125285
1124982 1126107
1124982 1126168
1124982 1128358
1124982 1125230
1124982 1126647
1124982 1124752
1124982 1124777
1124982 1127632
1124982 1127671
1125285 1127671
1127671 1125815
1127671 1129484
1127671 1127632
1127671 1128358
1125487 1125418
1125815 1127632
1124902 1124777
1124902 1124752
1124777 1124746
1124777 1124752
1124752 1124746
1126107 1126168
