1121978 1124081
1121978 1123660
1121978 1116318
1121978 1117364
1121978 1116309
1121978 1116284
1121978 1119362
1121978 1116774
1121978 1123557
1121978 1123636
1121978 1116324
1124081 1116309
1124081 1116324
1124081 1116318
1123660 1123636
1116318 1116309
1116318 1117457
1116318 1117536
1116318 1116284
1116318 1119407
1116318 1119362
1116318 1118141
1116318 1118285
1116318 1116774
1116318 1116314
1116318 1116427
1116318 1124459
1116318 1116439
1116318 1124493
1116318 1123125
1116318 1119593
1116318 1118173
1116318 1117789
1116318 1116334
1116318 1117364
1116318 1119829
1116318 1116324
1117364 1116309
1117364 1117457
1117364 1116284
1117364 1119362
1117364 1118285
1117364 1116314
1117364 1116439
1117364 1117789
1117364 1116334
1117364 1116324
1116309 1117457
1116309 1116284
1116309 1116774
1116309 1116314
1116309 1116439
1116309 1117789
1116309 1119407
1116309 1119362
1116309 1118285
1116309 1116334
1116309 1116324
1116284 1117536
1116284 1119362
1116284 1118285
1116284 1119407
1116284 1116774
1116284 1116314
1116284 1116427
1116284 1116439
1116284 1117789
1116284 1116334
1116284 1123125
1116284 1116324
1119362 1119973
1119362 1119407
1119362 1118285
1119362 1116314
1119362 1120353
1119362 1117789
1119362 1116324
1119362 1116774
1116774 1116324
1116324 1117457
1116324 1118141
1116324 1118285
1116324 1116314
1116324 1116427
1116324 1116439
1116324 1117789
1116324 1116334
1116324 1118173
1117457 1116334
1116314 1118285
1116314 1123125
1116314 1117789
1116314 1116334
1116439 1118141
1116439 1118285
1116439 1116427
1116439 1117789
1116439 1118173
1116439 1116334
1117789 1117536
1117789 1118285
1118285 1118141
1118285 1118173
1116334 1116427
1116334 1123125
1117536 1119593
1116427 1118848
1118141 1118173
