1112060 1110565
1112060 1110818
1112060 1110404
1112060 1110708
1110565 1110818
1110565 1110404
1110565 1110516
1110565 1110708
1110818 1114340
1110818 1110724
1110818 1113589
1110818 1112954
1110818 1113128
1110818 1112769
1110818 1112680
1110818 1112649
1110818 1111591
1110818 1111596
1110818 1112206
1110818 1115260
1110818 1110774
1110818 1110845
1110818 1113614
1110818 1110404
1110818 1110347
1110818 1110516
1110818 1116207
1110818 1111454
1110818 1110708
1110818 1111059
1110404 1110724
1110404 1110845
1110404 1110347
1110404 1111059
1110404 1110708
1110708 1114340
1110708 1110724
1110708 1110774
1110708 1110845
1110708 1113614
1110708 1110347
1110708 1112769
1110708 1112680
1110708 1115406
1110708 1111591
1110708 1111596
1110708 1111454
1110708 1111059
1110708 1115260
1110516 1110724
1110516 1113931
1110516 1110774
1110516 1110845
1110516 1111059
1114340 1111059
1114340 1110845
1111059 1110724
1111059 1110774
1111059 1110845
1111059 1113614
1111059 1110347
1111059 1112769
1111059 1112680
1111059 1111454
1111059 1112206
1110845 1110724
1110845 1110774
1110845 1112519
1110845 1113589
1110845 1113128
1110845 1110347
1110845 1114995
1110845 1115406
1110845 1112649
1110845 1111454
1110845 1112206
1110845 1113614
1110845 1112769
1110845 1112680
1110845 1115260
1110724 1110730
1110724 1110774
1110724 1110347
1110774 1111454
1110774 1113589
1110347 1111270
1112769 1112680
1111591 1111596
1111591 1111454
1111596 1111454
1115260 1115406
1112519 1114995
