1049191 1051159
1049191 1051141
1049191 1048860
1049191 1051155
1049191 1049016
1049191 1049156
1049191 1048847
1051159 1049016
1051159 1051263
1051159 1051141
1051159 1048860
1051159 1048847
1051159 1051155
1051141 1049016
1051141 1051263
1051141 1051155
1051141 1048860
1051141 1048847
1048860 1049016
1048860 1049968
1048860 1052034
1048860 1051263
1048860 1053428
1048860 1048847
1048860 1051155
1048860 1048976
1048860 1048836
1051155 1049016
1051155 1048847
1049016 1052248
1049016 1050580
1049016 1049968
1049016 1052034
1049016 1051263
1049016 1052788
1049016 1051454
1049016 1049579
1049016 1048847
1049016 1050155
1049016 1051425
1049016 1049454
1049016 1050885
1049016 1051512
1049016 1049415
1049016 1054532
1049016 1052168
1049016 1053526
1049016 1049156
1049016 1048976
1049016 1052122
1049016 1048836
1049016 1052844
1049016 1050495
1049156 1048847
1048847 1053911
1048847 1052248
1048847 1050580
1048847 1049968
1048847 1049454
1048847 1052246
1048847 1049415
1048847 1052034
1048847 1051263
1048847 1054532
1048847 1052788
1048847 1052168
1048847 1049579
1048847 1048976
1048847 1052122
1048847 1049897
1048847 1050975
1048847 1048836
1048847 1050155
1048847 1049880
1048847 1050495
1048847 1049000
1048847 1052844
1052248 1052788
1052248 1048976
1052248 1050155
1052248 1052246
1052248 1049897
1050580 1050495
1051263 1052844
1052788 1048976
1052788 1050155
1051454 1051512
1051454 1048976
1050155 1048976
1050155 1052844
1049454 1052168
1049454 1048836
1049454 1049415
1049454 1052122
1049415 1052168
1049415 1050975
1049415 1048836
1049415 1052122
1052168 1048836
1052168 1052122
1048976 1049897
1048976 1049880
1048976 1048836
1052122 1048836
1049897 1049880
