1041670 1037676
1037676 1037168
1037676 1039338
1037676 1037061
1037676 1037722
1037676 1036015
1038625 1036173
1036173 1037168
1036173 1036315
1036173 1036267
1036173 1037061
1036173 1036355
1036173 1036367
1036173 1036015
1036173 1036654
1037168 1037330
1037168 1036267
1037168 1037722
1037168 1036015
1037168 1040040
1037168 1039338
1037168 1037061
1037168 1039470
1037168 1037165
1037330 1037061
1036267 1036315
1036267 1036015
1036267 1036367
1036267 1037061
1036267 1037437
1036267 1036355
1037722 1037061
1036015 1036315
1036015 1041698
1036015 1039860
1036015 1037061
1036015 1036776
1036015 1037437
1036015 1040708
1036015 1036028
1036015 1036092
1036015 1039924
1036015 1036367
1036015 1036009
1036015 1036355
1040040 1037061
1039338 1037061
1037061 1036989
1037061 1041698
1037061 1037645
1037061 1037437
1037061 1039470
1037061 1037007
1037061 1037165
1041946 1041931
1041946 1036355
1041931 1036355
1036355 1036315
1036355 1037437
1036355 1042032
1036355 1036367
1036989 1037007
1036315 1036367
1042604 1040538
1042604 1036009
1040538 1036009
1040538 1037437
1036009 1037437
1036009 1036028
1036009 1036092
1037437 1039860
1037437 1040708
1037437 1039924
1039860 1039924
1036028 1036092
