1016215 1020292
1016215 1022141
1016215 1016825
1016215 1016413
1016215 1016372
1016215 1016410
1016215 1017082
1016215 1017796
1016215 1016883
1016215 1016429
1016215 1016461
1016215 1016551
1016215 1017063
1016215 1016475
1016215 1018060
1016215 1021484
1016215 1016535
1016215 1016747
1016215 1016612
1016215 1016840
1020292 1016551
1020292 1016883
1020292 1018060
1020292 1016612
1022141 1018060
1016825 1017625
1016825 1016883
1016825 1016429
1016825 1016461
1016825 1017002
1016825 1016413
1016825 1016837
1016825 1016410
1016825 1016813
1016825 1016475
1016825 1018060
1016825 1019318
1016825 1016840
1016413 1016883
1016413 1016429
1016413 1016461
1016413 1017002
1016413 1019423
1016413 1016551
1016413 1016813
1016413 1016837
1016413 1018060
1016413 1016410
1016413 1019318
1016413 1016840
1016413 1016608
1016372 1016551
1016372 1016535
1016410 1017625
1016410 1018689
1016410 1016883
1016410 1016429
1016410 1016461
1016410 1017002
1016410 1019423
1016410 1016551
1016410 1016813
1016410 1016837
1016410 1018694
1016410 1016475
1016410 1018060
1016410 1016608
1016410 1019318
1016410 1016840
1017082 1016883
1017082 1016461
1017082 1017063
1017082 1016475
1017082 1016840
1017796 1016551
1017796 1016883
1017796 1016429
1016883 1017625
1016883 1016429
1016883 1016461
1016883 1017002
1016883 1016551
1016883 1016813
1016883 1018227
1016883 1016837
1016883 1016475
1016883 1021716
1016883 1019318
1016883 1016840
1016883 1021328
1016883 1019440
1016883 1017063
1016883 1018060
1016883 1016612
1016883 1016608
1016429 1017625
1016429 1017002
1016429 1019423
1016429 1016551
1016429 1016813
1016429 1016837
1016429 1018060
1016429 1019318
1016429 1016461
1016429 1016840
1016461 1017625
1016461 1016709
1016461 1017002
1016461 1016837
1016461 1016813
1016461 1017063
1016461 1016475
1016461 1016840
1016461 1016608
1016551 1016475
1016551 1018060
1016551 1016535
1016551 1016747
1016551 1016612
1017063 1016475
1017063 1016840
1016475 1017625
1016475 1016813
1016475 1018227
1016475 1016612
1016475 1016840
1016475 1018060
1016475 1016747
1018060 1017625
1018060 1019440
1018060 1019423
1018060 1016813
1018060 1018227
1018060 1016837
1018060 1021716
1018060 1019318
1018060 1021484
1018060 1016612
1018060 1016840
1016612 1016608
1016840 1017002
1016840 1016813
1016840 1016837
1016840 1019318
1017625 1016813
1017625 1018227
1017625 1018689
1017625 1018694
1016813 1017002
1016813 1018227
1016813 1016837
1016813 1019318
1016813 1016608
1018689 1018694
1018694 1019440
1017002 1016837
1016837 1019423
1016837 1019318
1019318 1019423
