1004357 1004350
1004357 1004897
1004357 1004863
1004357 1004895
1004357 1005292
1004357 1004884
1004350 1007350
1004350 1006471
1004350 1005476
1004350 1004783
1004350 1007283
1004350 1006886
1004350 1007583
1004350 1006895
1004350 1009501
1004350 1009524
1004350 1004863
1004350 1008372
1004350 1006448
1004350 1006450
1004350 1009499
1004350 1004884
1004350 1005848
1004350 1008031
1004350 1007337
1004350 1007339
1004350 1009497
1004350 1005662
1004350 1008942
1004350 1006875
1004350 1008854
1004350 1006866
1004350 1008328
1004350 1005364
1004350 1004897
1004350 1005099
1004350 1005361
1004350 1004895
1004350 1006015
1004350 1004466
1004350 1005813
1004350 1008334
1004350 1007998
1004350 1006826
1004350 1008755
1004350 1004630
1004350 1005292
1004350 1005026
1004350 1006800
1004350 1006178
1004350 1008332
1004897 1005364
1004897 1005361
1004897 1004863
1004897 1004895
1004897 1004884
1004897 1005292
1004863 1005364
1004863 1005361
1004863 1004895
1004863 1005292
1004863 1004884
1004895 1004884
1005292 1008328
1005292 1005364
1005292 1005099
1005292 1005361
1005292 1008372
1005292 1006015
1005292 1004466
1005292 1004884
1005292 1008334
1005292 1008854
1005292 1008332
1004884 1004783
1004884 1005364
1004884 1005361
1004884 1008854
1004884 1005026
1007350 1004466
1004466 1008328
1004466 1006383
1004466 1007583
1004466 1005099
1004466 1009501
1004466 1009524
1004466 1008372
1004466 1006015
1004466 1007447
1004466 1008031
1004466 1005089
1004466 1009499
1004466 1008334
1004466 1009497
1004466 1004630
1004466 1008332
1006471 1006448
1006471 1006450
1006448 1006450
1004783 1005026
1006886 1006895
1006886 1006826
1006886 1006875
1006886 1006866
1006895 1006826
1006895 1006875
1006895 1006866
1009501 1009524
1009501 1006015
1009501 1009499
1009501 1009497
1009524 1006015
1009524 1009499
1009524 1009497
1008372 1008328
1008372 1005099
1008372 1008334
1008372 1008332
1009499 1006015
1009499 1009497
1005848 1006015
1005848 1005813
1007337 1007339
1007339 1006015
1009497 1006015
1006875 1006826
1006875 1006866
1006866 1006826
1008328 1005099
1008328 1008334
1008328 1008332
1005364 1005361
1005099 1006383
1005099 1007447
1005099 1008334
1005099 1008332
1005099 1005089
1006015 1005813
1006015 1006178
1008334 1008332
