969958 972842
969958 971101
969958 977415
969958 975548
969958 972616
969958 972554
969958 971231
969958 971237
969958 975488
969958 969991
969958 972983
969958 974661
969958 975552
969958 970003
969958 971444
969958 971147
969958 971987
969958 970275
969958 971990
969958 971068
969958 975437
969958 970068
969958 971222
969958 977402
969958 974157
969958 969862
969958 974577
969958 974591
972842 972983
972842 971147
972842 971068
972842 970068
972842 971237
972842 969862
971101 971147
971101 971231
971101 970068
971101 971169
971101 969862
971101 971068
977415 977402
977415 969862
975548 975552
975548 975437
975548 975488
972616 971147
972616 971068
972616 972554
972616 970068
972616 969862
972554 971147
972554 971068
972554 970068
972554 969862
971231 971147
971231 971068
971231 971237
971231 970068
971231 971222
971231 969862
971237 971444
971237 971147
971237 971987
971237 973831
971237 971068
971237 970068
971237 972983
971237 971222
971237 974661
971237 969862
971237 974577
971237 974591
975488 975437
975488 975552
969991 970003
972983 973274
972983 971444
972983 971147
972983 971068
972983 970068
972983 973292
972983 974157
972983 973603
972983 976465
972983 975348
972983 969862
972983 976539
974661 970068
974661 969862
974661 974577
974661 974591
975552 975437
971444 971147
971444 976465
971444 971068
971444 970068
971444 969862
971147 973274
971147 971068
971147 970068
971147 973292
971147 971169
971147 976465
971147 969862
971147 971222
971987 971990
971987 972124
971987 969862
970275 970068
970275 971729
970275 969862
971990 969862
971068 973292
971068 973603
971068 971169
971068 976190
971068 970068
971068 971222
971068 969862
970068 973274
970068 977298
970068 976342
970068 973831
970068 970090
970068 970458
970068 974157
970068 973603
970068 971169
970068 974475
970068 970449
970068 975236
970068 973292
970068 975224
970068 975348
970068 977011
970068 977176
970068 969862
970068 974577
970068 970436
970068 974591
977402 969862
974157 976539
974157 969862
969862 973274
969862 976342
969862 973831
969862 969857
969862 972124
969862 970458
969862 975236
969862 973292
969862 975224
969862 973603
969862 971169
969862 976465
969862 975348
969862 971729
969862 977011
969862 977176
969862 974577
969862 970436
969862 970449
969862 974591
974577 974591
974591 977011
973274 973292
973292 975236
973292 975224
973292 970436
973292 973603
970458 970436
970458 970449
970436 975236
970436 975224
970436 970449
975236 975224
