911488 911096
911488 911309
911488 911551
911488 911444
911488 911364
911488 911451
911488 915126
911096 915262
911096 913578
911096 913967
911096 914054
911096 911109
911096 914894
911096 911309
911096 915359
911096 913273
911096 912587
911096 911656
911096 912072
911096 913587
911096 911364
911096 915278
911096 912303
911096 915591
911096 911099
911096 911894
911309 911444
911309 913485
911309 911306
911309 915262
911309 913578
911309 911364
911309 915278
911309 916166
911309 911451
911309 915068
911309 911109
911309 912635
911309 914894
911309 915359
911309 913273
911309 911551
911309 911656
911309 911099
911309 913587
911309 912587
911309 911894
911444 911451
911444 911364
911364 911451
911364 912587
911364 911109
911364 911983
911364 912505
911364 914085
911364 911099
915262 915359
915262 915278
915262 911656
915262 911894
913578 913587
911109 912505
911109 915955
911109 912587
911109 911099
915359 915278
912587 911983
912587 914085
912587 911099
911656 911894
912072 915591
911099 911983
911099 914085
911983 914085
912505 915955
912505 914683
