899060 902464
899060 899219
899060 900571
899060 899057
899060 900131
899060 899982
899060 903968
899060 899997
899060 899701
899060 899711
899060 904647
899060 903272
899060 899574
899060 901175
899060 902042
899060 900248
899060 900533
899060 900557
899060 899889
899060 900214
899060 899189
899060 902701
899060 903548
899060 901292
899060 901196
899060 903494
899060 903048
899060 900502
899060 900513
899060 899815
902464 900571
902464 904849
902464 904852
902464 904858
902464 899057
899219 902701
899219 903548
899219 900571
899219 899982
899219 903968
899219 899701
899219 899711
899219 904647
899219 903494
899219 903272
899219 899574
899219 903048
899219 900533
899219 900557
899219 899889
899219 900502
899219 900513
899219 899057
899219 899997
900571 904849
900571 904852
900571 904858
900571 899057
900571 900533
900571 900557
900571 900502
900571 900513
899057 902701
899057 903548
899057 904849
899057 904852
899057 904858
899057 899982
899057 903968
899057 899997
899057 899701
899057 899711
899057 904647
899057 901196
899057 903272
899057 899574
899057 902042
899057 900248
899057 900557
899057 899889
899057 900214
899057 899189
899057 900131
899057 900946
899057 903494
899057 903048
899057 900533
899057 900502
899057 900513
900131 900248
900131 900214
899982 903548
899982 899997
899982 903494
899982 903048
903968 902701
903968 903272
903968 903048
899701 899711
899701 899574
899711 899574
904647 902701
904647 903272
903272 902701
903272 903048
902042 902701
902042 903048
900248 900214
900533 900557
900533 900502
900533 900513
900557 900502
900557 900513
899189 901196
902701 903048
903548 903494
903548 903048
903494 903048
900502 900513
904849 904852
904849 904858
904852 904858
