855411 853462
855411 853307
855411 853427
855411 853310
855411 854863
853462 853307
853462 853427
853462 853310
853462 852055
853462 855502
853462 856243
853462 854863
853307 854917
853307 857891
853307 853523
853307 853326
853307 854677
853307 858657
853307 854024
853307 855477
853307 858718
853307 853217
853307 855502
853307 852679
853307 853647
853307 851929
853307 852055
853307 856465
853307 854863
853307 853254
853307 853427
853307 853310
853307 856243
853427 853523
853427 852123
853427 855502
853427 853647
853427 853310
853427 852055
853427 856243
853427 854863
853310 854917
853310 853326
853310 854677
853310 854024
853310 853217
853310 853254
853310 854863
854863 854917
854863 857891
854863 853523
854863 854677
854863 854024
854863 858718
854863 851929
854863 852055
854055 854127
854055 854090
854055 854024
854055 854072
854055 854066
854055 851929
854127 852455
854127 854090
854127 854024
854127 854072
854127 854066
854127 851929
854090 854024
854090 851929
854090 854072
854090 854066
854024 854917
854024 854851
854024 853523
854024 854677
854024 852055
854024 854072
854024 854066
854024 858718
854024 851929
854072 851929
854072 854066
854066 851929
851929 857891
851929 854851
851929 852461
851929 857252
851929 855874
851929 853523
851929 854649
851929 852352
851929 853870
851929 854677
851929 858657
851929 852123
851929 853923
851929 852557
851929 858718
851929 853217
851929 852078
851929 855502
851929 857943
851929 856846
851929 852679
851929 853910
851929 857586
851929 854424
851929 854427
851929 852191
851929 852522
851929 854238
851929 852055
854917 854677
854677 854851
854677 853523
854677 854649
854851 853523
854851 854649
853523 853647
853523 852055
853523 854649
853523 858657
853523 858718
853523 853217
853523 852679
852461 853870
852461 853923
852461 852477
852461 853910
852461 852522
852461 852055
852461 852511
852461 852467
852461 857252
852461 856846
852461 852191
852461 852455
853870 857252
853870 853923
853870 856846
853870 853910
853870 852191
853923 857252
853923 853910
853923 856846
853923 852191
852477 852522
852477 852055
852477 852511
852477 852467
852477 852455
853910 857252
853910 856846
853910 852191
852522 852557
852522 856846
852522 856858
852522 856837
852522 852055
852522 852511
852522 852467
852522 852191
852522 852455
852055 855874
852055 855853
852055 855897
852055 855985
852055 852352
852055 853326
852055 858657
852055 852123
852055 852557
852055 858718
852055 853217
852055 852078
852055 855502
852055 856846
852055 856858
852055 852679
852055 856059
852055 856837
852055 852148
852055 852970
852055 855812
852055 856465
852055 854424
852055 854427
852055 852455
852055 852511
852055 852467
852055 852191
852055 854493
852511 852467
852511 852455
852467 852455
857252 856846
857252 852191
856846 855874
856846 856858
856846 857586
856846 856837
856846 852191
852191 856858
852191 856837
852191 852148
852455 852679
855874 855897
855874 855985
855874 852078
855874 852679
855874 857586
855874 856059
855874 855853
855874 855812
855897 855853
855897 855985
855897 852679
855897 856059
855897 852078
855897 855812
855985 855853
855985 856059
855985 852078
855985 852679
855985 855812
852078 855853
852078 852352
852078 852679
852078 856059
852078 855812
852078 852148
852679 855853
852679 858657
852679 858718
852679 853217
852679 855502
852679 856059
852679 852970
852679 854493
852679 855812
856059 855853
856059 855812
855853 855812
858657 858718
858657 853217
858718 853217
853217 853326
853217 855502
853217 853254
853217 856465
852352 852123
852352 852148
853326 855502
853326 856465
853326 853254
855502 856465
855502 856243
856858 856837
854424 854427
