846421 846306
846421 847125
846421 846374
846421 847141
846421 846407
846421 846411
846421 847390
846421 846942
846421 849869
846421 847092
846421 849860
846421 846907
846306 850561
846306 847060
846306 846942
846306 847125
846306 847039
846306 846407
846306 846907
846306 845870
846306 850196
847125 846942
847125 849869
847125 847092
847125 849860
847125 847039
847125 847141
847125 846407
847125 846907
847125 846411
847125 847390
846374 846942
846374 847092
846374 846407
846374 846411
846374 846907
847141 846407
847141 846907
847141 846411
846407 846942
846407 849869
846407 847092
846407 849860
846407 846907
846407 847390
846407 846411
846411 846942
846942 846907
846942 847092
849869 849860
847092 850561
847092 846907
846907 847039
846907 848705
846907 847740
846907 850196
847060 850304
847060 847039
847060 845870
847039 850304
847039 845870
845870 850304
845870 845855
845870 845852
845855 846019
845855 846022
845855 845852
846019 846022
846019 845852
846022 845852
848705 847740
847740 847749
847740 847759
847749 847759
