5 15 38
15 5 36
8 24 7
25 8 7
8 5 7
24 8 6
8 15 6
15 23 5
15 8 5
5 8 5
5 16 4
20 21 4
23 5 4
15 25 4
8 25 4
15 7 4
5 6 3
15 17 3
17 5 3
21 20 3
22 15 3
5 23 3
23 15 3
25 24 3
13 4 2
6 15 2
1 5 2
20 15 2
15 20 2
15 22 2
23 8 2
24 15 2
24 5 2
16 5 2
7 15 2
7 5 2
22 5 2
5 22 2
24 25 2
1 2 1
2 3 1
3 4 1
4 5 1
6 7 1
7 8 1
8 1 1
1 9 1
9 10 1
10 1 1
1 11 1
11 12 1
12 4 1
4 6 1
6 13 1
4 14 1
14 6 1
5 1 1
16 15 1
17 15 1
5 17 1
5 18 1
18 5 1
5 19 1
19 20 1
21 22 1
15 24 1
25 15 1
25 6 1
6 1 1
16 13 1
4 15 1
7 25 1
8 7 1
5 10 1
10 5 1
5 7 1
7 12 1
12 25 1
25 3 1
3 6 1
6 17 1
17 20 1
20 22 1
22 23 1
6 8 1
5 24 1
5 25 1
8 26 1
26 27 1
27 26 1
26 28 1
28 26 1
26 29 1
29 5 1
5 13 1
13 5 1
5 30 1
