795603 801186
795603 796970
795603 796967
795603 797232
795603 798723
795603 800014
795603 799738
795603 797400
795603 799966
795603 796964
795603 797012
795603 796988
795603 797158
795603 795675
795603 799722
795603 801803
795603 796957
795603 800946
795603 797970
795603 797278
795603 796934
795603 794481
795603 797453
795603 794477
795603 798807
801186 800946
801186 797453
801186 798807
796970 796934
796970 797012
796970 796988
796970 796967
796970 796964
796970 796957
796967 796934
796967 797012
796967 796988
796967 796964
796967 796957
798723 797453
798723 800014
798723 799966
798723 798807
800014 797453
800014 798807
800014 799966
799738 797453
799738 799722
799738 798807
797400 797453
799966 797453
799966 798807
796964 796934
796964 797012
796964 796988
796964 796957
797012 796934
797012 797453
797012 796988
797012 796957
796988 796934
796988 796957
795675 794481
795675 797453
795675 794477
795675 795671
795675 796346
799722 797453
799722 798807
801803 798807
796957 796934
800946 798807
800946 797453
794481 795168
794481 794533
794481 794605
794481 795537
794481 794537
794481 794622
794481 794664
794481 794477
794481 795163
794481 794497
794481 794714
794481 795529
794481 797453
794481 796346
794481 796438
794481 794502
797453 801747
797453 798089
797453 794477
797453 798807
797453 798349
794477 795168
794477 794533
794477 795537
794477 794537
794477 795163
794477 794497
794477 795529
794477 794544
794477 794502
795168 795163
794533 794664
794533 794544
794533 794605
794533 794537
794533 794622
794664 794605
794664 794537
794664 794622
794544 794537
794605 794622
794605 794537
794537 794622
795537 795529
794497 794502
794502 794517
