734055 734125
734055 730135
734055 730825
734125 730135
734125 730825
730135 730556
730135 730140
730135 729926
730135 731346
730135 730694
730135 730698
730135 729992
730135 730665
730135 732273
730135 731118
730135 730825
730135 730018
730135 730374
730135 731576
730825 730694
730825 730698
730825 729992
730825 730665
730825 730018
734400 730665
730665 730694
730665 730698
730665 730374
730665 732273
730665 730662
730665 730018
730665 731576
730556 730018
730018 730140
730018 730090
730018 729926
730018 732011
730018 730694
730018 730021
730018 732273
730018 731118
730018 732025
730018 732515
730018 730374
730140 730090
730090 732515
730090 729926
731008 730940
731008 730694
731008 730698
730940 730694
730940 730698
730694 731793
730694 731782
730694 730698
730694 730374
730698 731793
730698 731782
729926 729919
729926 731346
732011 732025
732011 730374
732025 730374
731793 731782
