724741 723608
723608 727069
723608 723692
723608 724271
723608 724381
723608 728135
723608 723681
723608 728633
723608 726243
723608 729566
723608 723823
723608 726371
723608 726773
723608 728759
723608 727050
723608 728756
723608 723791
723608 726013
723608 725152
723608 726780
723608 724508
723608 727074
723608 726784
723608 726391
723608 727888
723608 723806
723608 723737
723608 725982
723608 724267
723608 726125
723608 727540
723608 726835
723608 726656
723608 723976
723608 724323
727069 727074
727069 723791
727074 727050
727074 723791
723791 728633
723791 729566
723791 723823
723791 723806
723692 723681
723692 723737
723681 723737
724271 724381
724271 723806
724271 724267
724271 724323
724381 724323
723806 726243
723806 729566
723806 723823
723806 728759
723806 728756
723806 726125
723806 727540
723806 725152
723806 724508
723806 726656
723806 727517
726243 723823
726243 728759
726243 728756
726243 726125
726243 726773
726243 726780
726243 726784
726243 726656
723823 725152
723823 724508
723823 728759
723823 728756
728759 728756
728759 726656
728756 726656
726773 726784
726773 726780
726780 726784
726013 725982
