715476 710179
715476 710953
715476 710506
715476 710266
715476 712480
715476 710312
710179 710360
710179 710173
710179 710266
710179 710431
710179 710183
710179 710377
710179 710186
710179 712162
710179 710953
710179 711085
710179 712480
710179 714519
710179 712726
710179 713060
710179 712006
710179 710312
710179 714450
710179 713334
710179 710506
710953 713205
710953 711789
710953 710266
710953 710983
710953 712726
710953 710965
710953 713060
710953 711516
710953 710506
710953 712162
710953 711085
710953 712480
710953 710312
710953 713334
710506 710266
710506 710431
710506 711085
710506 712480
710506 710312
710266 710360
710266 710173
710266 713205
710266 711085
710266 712726
710266 710377
710266 712162
710266 710183
710266 712480
710266 714519
710266 710312
710266 710186
710266 714450
710266 710701
712480 712726
712480 712162
712480 710312
710312 710360
710312 710173
710312 710183
710312 712726
710312 710377
710312 710701
710312 710186
710360 710377
710360 710173
710360 710183
710360 710186
710377 710173
710377 710183
710377 710186
710173 710183
710173 710186
710183 710186
711085 710983
711085 716527
711085 712726
712726 716527
