707263 707305
707263 707239
707263 707479
707263 707249
707263 707695
707263 707598
707263 708636
707263 708024
707305 707467
707305 707239
707305 707479
707305 707249
707239 708283
707239 707379
707239 707467
707239 708804
707239 708107
707239 708110
707239 708069
707239 707695
707239 707479
707239 707249
707239 708024
707479 708283
707479 707467
707479 708107
707479 708110
707479 708069
707479 707249
707479 708024
707479 707695
707249 707379
707249 707467
707695 708283
707695 708107
707695 708024
708024 708283
708024 708804
708024 708107
708024 708110
708107 708110
