687421 686500
686500 688126
686500 688406
686500 687622
686500 688033
686500 690462
686500 686855
686500 686850
686500 690362
686500 687595
686500 690658
686500 691957
686500 686495
686500 691406
686500 689219
686500 687544
686500 691459
686500 691467
686500 689254
686500 691498
686500 687932
686500 690426
686500 690017
686500 687581
686500 692231
686500 687662
686500 690114
686500 688908
686500 690260
686500 689333
686500 688044
686500 691450
686500 691698
686500 689052
686500 691573
686500 692122
686500 691542
686500 689139
688126 690932
688126 689219
688126 690017
688126 687662
688126 686855
688126 688908
688126 689333
688126 688044
688126 692039
690932 687662
690932 689676
690932 689333
689219 687662
689219 690114
689219 688044
690017 686855
690017 692039
690017 690336
690017 690954
687662 687622
687662 688033
687662 687581
687662 690462
687662 687595
687662 691957
687662 691406
687662 689333
687662 691573
687662 689254
687662 687932
687662 690260
687662 688044
687662 691450
687662 691459
687662 691467
687662 691698
687662 691498
687662 691542
686855 690462
686855 686850
686855 690658
686855 690336
686855 690954
686855 692039
689333 692516
689333 690462
689333 692512
689333 689676
689333 688044
688044 688406
688044 688033
688044 690462
688044 692183
688044 689254
688044 689139
692516 692512
688406 688033
687622 687581
687622 687595
687581 687595
690462 690658
690362 690426
691957 691698
691957 691573
691459 691450
691459 691467
691459 691498
691467 691450
691467 691498
691498 691450
687932 690260
687932 689139
691698 692416
691698 691573
691573 691542
690336 690954
