684852 682258
684852 681222
682258 682265
682258 680477
682258 684084
682258 685154
682258 680860
682258 684207
682258 682940
682258 685781
682258 684003
682258 680930
682258 680469
682258 685316
682258 684297
682258 681222
682258 684214
681222 680477
681222 683143
681222 685154
681222 682940
681222 680930
681222 680469
681222 685316
681222 681282
681222 681265
685283 680930
685283 685316
685283 685310
680930 680477
680930 684966
680930 683299
680930 685154
680930 680860
680930 684749
680930 685017
680930 685024
680930 685316
680930 685310
680930 680816
680930 684597
680930 680469
685316 685154
685316 685310
682265 680477
680477 680579
680477 685154
680477 680860
680477 681365
680477 680469
680477 684297
680477 681282
680477 681265
680477 683143
680477 684084
680477 681340
680477 680568
680477 680816
680579 680568
685154 685781
680860 680469
681365 681340
681365 680469
680469 683299
680469 685740
680469 682940
680469 684597
680469 684749
680469 685017
680469 685024
680469 681282
680469 681265
680469 680816
680469 681340
681282 681265
681265 685740
680816 684749
680816 685017
680816 685024
684207 684214
684749 685017
684749 685024
685017 685024
