676383 676366
676383 676288
676383 676002
676383 676166
676383 672747
676383 676010
676383 676249
676366 676002
676366 677234
676366 676249
676366 676288
676366 677185
676366 676166
676366 672747
676366 676010
676288 676002
676288 676166
676288 672747
676288 676010
676288 676249
676002 675949
676002 677185
676002 676166
676002 672339
676002 672747
676002 676249
676002 677234
676002 673411
676002 674725
676002 676010
676002 673782
676002 675958
676166 672339
676166 672747
676166 676249
676166 676010
672747 674364
672747 674728
672747 672339
672747 672753
672747 674323
672747 674725
672747 674667
672747 674940
672747 674719
672747 676010
672747 676249
672747 674713
676010 675949
676010 672339
676010 673411
676010 676249
676010 675958
676249 677185
676249 677234
675949 673411
675949 675958
675949 672339
675949 676423
673411 672339
673411 675958
675958 672339
672339 678964
672339 674450
672339 679211
672339 677750
672339 678893
672339 672579
672339 674141
672339 674130
672339 672498
672339 678549
672339 679143
672339 674364
672339 674728
672339 673288
672339 673643
672339 672563
672339 673035
672339 672927
672339 675716
672339 678637
672339 674323
672339 676423
672339 674725
672339 678530
672339 678695
672339 673044
672339 673048
672339 674713
672339 674719
672339 679213
672339 677560
672339 674100
672339 679147
672339 674667
672339 678807
672339 673296
672339 672241
672339 679324
672339 673797
678964 678893
674450 672579
674450 675716
674450 674364
674450 672563
675716 672563
674364 672563
674364 674323
679211 679213
679211 679524
679211 679143
679211 679147
679211 679324
679213 679143
679213 679147
679213 679324
679524 679324
679143 679147
674141 674130
674141 673296
673296 673288
673296 674100
677234 677185
673750 673782
678549 678637
678549 678530
678637 678530
678637 678695
678530 678807
674725 674728
674725 674323
674725 674940
674725 674667
674725 674713
674725 674719
674323 674728
674323 674713
674323 674719
674323 674667
674728 674667
674728 674713
674728 674719
674667 674713
674667 674719
674713 674719
673035 673044
673035 673048
673035 672927
672927 673164
672927 673044
672927 673048
672927 673797
673044 673048
