662175 661873
662175 662077
662175 666348
662175 666123
662175 666333
662175 662487
662175 662684
662175 666239
662175 662169
662175 662298
661873 663170
661873 662077
661873 664205
661873 662019
661873 662015
661873 662298
661873 666194
661873 663225
661873 663228
661873 665549
661873 663627
662077 663170
662077 666239
662077 662019
662077 662634
662077 662169
662077 666348
662077 666123
662077 666333
662077 664205
662077 663225
662077 663228
662077 665549
662077 663627
662077 662684
662077 662015
662077 662487
662077 662298
666348 666239
666348 666333
666333 666239
662487 662298
662487 662684
662684 662298
666239 666143
666239 666194
662298 663170
662298 662019
662298 662634
662298 664205
662298 661937
663170 662019
663170 662015
663170 665549
663170 663225
663170 663228
662019 664205
662019 662015
662019 661937
662019 665549
662015 664205
662015 665549
665549 664205
663225 663228
666143 666146
666143 666194
664205 662634
663627 662601
661937 662634
661937 661598
661489 661678
661489 661615
661489 661598
661489 661812
661489 661700
661678 661598
661678 661615
661615 661598
661615 661812
661615 661700
661598 661812
661598 661700
661812 661739
661812 661700
