653536 653604
653536 653006
653604 653288
653604 656822
653604 653006
653604 653777
653604 653596
653604 653983
653604 653625
653006 653288
653006 653961
653006 656822
653006 657345
653006 653096
653006 653234
653006 655412
653006 656517
653006 654035
653006 653177
653006 653935
653006 657386
653006 656168
653006 653983
653006 655427
653006 653777
653006 655503
653006 653596
653006 656535
653006 656070
653006 656756
653006 654722
653006 654690
653006 654332
653006 653896
653006 653625
653288 653961
653288 655412
653288 655503
653288 655427
653288 654722
653288 653896
653288 657345
653288 653096
653288 653234
653288 656517
653288 653177
653288 653935
653288 657386
653288 656535
653288 654690
653288 654332
653961 653935
653961 653777
653961 655876
655412 653935
655412 655427
655503 653896
655427 653935
654722 653896
654722 654690
653896 653777
653896 654690
657345 657386
653096 653234
653096 653177
653234 653177
656517 656535
656517 654332
653935 653983
653935 653777
653935 655944
653935 655947
656535 654332
654332 656168
653777 656822
653777 653983
653777 656756
656822 653983
653596 653625
655944 655947
