597289 597299
597289 597296
597289 597272
597289 597215
597289 597235
597289 594596
597289 597275
597289 597194
597289 597222
597289 594983
597299 597272
597299 597215
597299 597235
597299 594596
597299 597275
597299 597194
597299 597296
597299 597222
597299 594983
597296 597272
597296 597215
597296 597235
597296 594596
597296 597275
597296 597194
597296 597222
597296 594983
597272 597275
597272 597215
597272 597235
597272 594596
597272 597194
597272 597222
597272 594983
597215 597235
597215 597275
597215 597222
597215 594596
597215 597194
597215 594983
597235 597275
597235 594596
597235 597194
597235 597222
597235 594983
594596 600298
594596 601717
594596 595935
594596 597481
594596 601310
594596 594687
594596 594858
594596 601608
594596 594953
594596 596659
594596 598893
594596 596874
594596 596641
594596 594938
594596 597554
594596 597275
594596 597390
594596 597034
594596 594831
594596 597194
594596 596691
594596 597402
594596 597222
594596 594983
594596 596649
594596 596994
594596 598616
594596 596634
594596 599668
594596 598513
594596 594578
594596 598518
594596 594816
594596 596215
594596 596637
594596 599457
594596 597772
594596 597874
594596 600335
597275 597194
597275 597222
597275 594983
597194 597222
597194 594983
597222 594983
594983 601717
594983 595935
594983 597481
594983 594687
594983 596634
594983 594858
594983 596659
594983 598893
594983 596874
594983 596641
594983 597390
594983 597034
594983 594816
594983 596215
594983 596637
594983 599457
594983 597402
594983 595672
594983 595678
594983 597772
594983 596649
594983 596994
594983 597874
598896 598893
598893 601226
598893 594687
598893 596874
598893 601235
598893 596215
598893 599170
598893 597772
598893 601268
598893 598982
595935 597481
595935 596634
595935 596659
595935 596641
595935 594816
595935 596637
595935 596649
595935 597390
595935 596215
595935 597402
595935 600699
597481 596659
597481 596641
597481 594816
597481 596637
597481 596649
597481 596634
597481 597390
597481 597402
596634 596659
596634 596641
596634 596637
596634 596649
596634 597390
596634 594816
596634 597402
596659 596641
596659 596637
596659 596649
596659 597390
596659 597402
596641 594816
596641 597390
596641 596637
596641 597402
596641 596649
594816 601310
594816 594687
594816 594858
594816 596637
594816 596215
594816 595672
594816 595678
594816 596649
596637 597390
596637 597402
596637 596649
596649 597390
596649 597402
597390 597402
596215 601310
596215 594687
596215 594858
596215 596874
596215 599170
596215 597772
596215 600699
601226 601235
594687 601619
594687 596874
594687 595672
594687 595678
594687 594858
595672 595678
594858 594953
594858 594938
594858 597554
594858 599457
594858 597772
594858 597874
594953 594938
597034 596994
598616 598513
598513 598518
597772 599170
