587300 587308
587300 587280
587300 587077
587308 587082
587308 587280
587308 587077
587280 587077
587077 587603
587077 591007
587077 589460
587077 587359
587077 591134
587077 588330
587077 588992
587077 588245
587077 587363
587077 589219
587077 587549
587077 587586
587077 587145
587077 587082
587077 590988
587077 588642
587077 588579
587077 591104
587077 587840
587077 587803
587603 587549
587603 587082
587603 587586
587549 589460
587549 588330
587549 588992
587549 588245
587549 588642
587549 587586
587549 587082
587549 587840
587082 591007
587082 589460
587082 587359
587082 588330
587082 587363
587082 589219
587082 587586
587082 587145
587082 590988
591007 587145
591007 590988
587145 588330
587145 590988
587145 588832
587145 588819
590988 591134
590988 591104
589460 588330
588330 587359
588330 588642
588330 589324
587359 587363
587359 588642
591134 591104
588245 587840
587840 587803
