571943 571933
571933 572000
571933 577322
571933 573234
571933 573109
571933 574329
571933 572163
571933 572460
571933 573026
571933 572712
571933 574346
571933 571998
572767 572000
572767 571998
572000 577002
572000 573234
572000 573909
572000 572013
572000 572866
572000 576230
572000 572506
572000 576316
572000 573026
572000 571998
572000 576350
572000 572485
572000 572481
572000 572539
572000 572290
572000 576454
572000 574046
572000 577640
572000 572403
572000 574095
572000 572460
572000 572320
572000 572712
572000 572322
572000 575056
571998 577002
571998 577640
571998 572013
571998 572403
571998 572866
571998 572460
571998 576230
571998 572506
571998 572320
571998 576316
571998 573026
571998 575892
571998 572712
571998 574622
571998 572322
571998 572485
571998 572481
571998 572539
571998 572290
571998 576454
571998 576350
571998 575056
577002 572506
572506 576230
572506 572485
572506 572481
572506 572539
572506 573026
573234 572163
573234 573109
573909 572290
576230 572485
576230 572481
576316 576350
573026 577640
573026 573109
573026 572290
573026 576454
573026 574046
573026 572993
573026 572712
573026 576648
573026 572322
573026 575056
572485 572481
572290 577640
572290 572403
572290 572320
572290 575892
572290 576648
572290 572322
572320 572322
572712 573109
572712 572993
572322 576648
574329 574346
