553915 553258
553915 553800
553915 553191
553915 553544
553915 553713
553915 553694
553915 553626
553915 553211
553915 553707
553915 553794
553258 553544
553258 553800
553258 553191
553258 553713
553258 553694
553258 553626
553258 553211
553258 553707
553258 553794
553800 553544
553800 553626
553800 553191
553800 553713
553800 553694
553800 553959
553800 553211
553800 553707
553800 553794
553191 553544
553191 553713
553191 553959
553191 557429
553191 554422
553191 555612
553191 555583
553191 553794
553191 557376
553191 557392
553191 554193
553191 553694
553191 554707
553191 553626
553191 555550
553191 556478
553191 554441
553191 556491
553191 553211
553191 553707
553191 553163
553191 554307
553191 553168
553544 553592
553544 558234
553544 558245
553544 553626
553544 558009
553544 557576
553544 554422
553544 555612
553544 553211
553544 555583
553544 553707
553544 557594
553544 554193
553544 553713
553544 553694
553544 553959
553544 558290
553544 555550
553544 554995
553544 555368
553544 557609
553544 556645
553544 553794
553544 554307
553713 553975
553713 553959
553713 553626
553713 553941
553713 553211
553713 553794
553713 553694
553713 553707
553694 553626
553694 553211
553694 553707
553694 553794
553626 557125
553626 554193
553626 557200
553626 555550
553626 556478
553626 555250
553626 554995
553626 556491
553626 553707
553626 557176
553626 553211
553626 553794
553626 554307
553211 553592
553211 554174
553211 558234
553211 557125
553211 558245
553211 556812
553211 554193
553211 554150
553211 553959
553211 558290
553211 556295
553211 554707
553211 557200
553211 555550
553211 556478
553211 554524
553211 555250
553211 557429
553211 554995
553211 554459
553211 555368
553211 556156
553211 556645
553211 554422
553211 554441
553211 556383
553211 555612
553211 554388
553211 556491
553211 553707
553211 557176
553211 553794
553211 554307
553211 553495
553211 554381
553211 557376
553211 557392
553211 556915
553211 553403
553211 555583
553211 553163
553211 553168
553211 553479
553707 557125
553707 554193
553707 553959
553707 556295
553707 557200
553707 555550
553707 554524
553707 554995
553707 555368
553707 556156
553707 554422
553707 554441
553707 556383
553707 555612
553707 555583
553707 557176
553707 553794
553707 554307
554174 553959
553959 553975
553959 554193
553959 555752
553959 554150
553959 554459
553959 555368
553959 555693
553959 556156
553959 554422
553959 553941
553959 553403
553959 554707
553959 554524
553959 554995
553959 557714
553959 554441
553959 554381
558234 558245
558234 558290
558234 554307
558234 554995
558245 558290
558245 554307
558245 554995
558290 554307
558290 554995
554307 557125
554307 554193
554307 556295
554307 557200
554307 555550
554307 554524
554307 554995
554307 555368
554307 556156
554307 554422
554307 554441
554307 556383
554307 555612
554307 554388
554307 555583
554307 557176
554307 554381
554995 554193
554995 556645
554995 554422
554995 557176
554995 555368
557125 557200
557125 557176
557125 554193
557200 557176
554193 555583
554193 557376
554193 556295
554193 554707
554193 555250
554193 555368
554193 556645
554193 554422
554193 554441
556812 554707
556812 556478
556812 556915
554707 556478
554707 556915
554707 554422
554707 554441
556478 556491
556478 556915
557429 557376
557429 557392
554422 556295
554422 554524
554422 558009
554422 557576
554422 555368
554422 557609
554422 556645
554422 554441
555612 555550
555612 555583
555583 555550
557376 557392
554441 553975
554441 554524
554441 555693
554441 556156
554441 557714
554441 553941
554441 554381
554441 556383
553163 553168
553975 554524
553975 556156
553975 554381
553975 553941
554524 557714
554524 554381
554524 556156
554524 556383
554524 553941
556156 556383
556156 553941
556156 554381
554381 555752
554381 555693
554381 554388
554381 553941
558009 557576
558009 557609
557576 557594
557576 557609
557594 557609
555368 556295
555752 555693
554459 559077
554459 553403
553403 559077
553403 553495
553403 553479
553495 553479
