530771 528258
530771 530968
530771 528711
528258 528740
528258 529684
528258 529303
528258 530316
528258 532544
528258 528719
528258 528302
528258 529720
528258 528711
528258 529433
528258 528805
528258 529128
528258 532321
528258 528788
528258 530968
528258 533639
528258 528835
528258 533631
528258 528323
530968 528711
528711 528740
528711 529303
528711 529128
528711 532321
528711 532544
528711 528719
528711 533639
528711 529720
528711 533631
528711 529433
528711 528323
528740 528719
528740 529128
528719 529303
528719 529128
529128 529720
529128 528323
529303 528302
529303 533631
528302 533631
528302 528323
533631 533639
533631 528323
528805 528788
533639 528323
