512518 508241
512518 508290
512518 512516
508241 512391
508241 508484
508241 510633
508241 509182
508241 510101
508241 510326
508241 509796
508241 508400
508241 510807
508241 510081
508241 511388
508241 509211
508241 508503
508241 508488
508241 512396
508241 509204
508241 510589
508241 509190
508241 509153
508241 510603
508241 508515
508241 508238
508241 509103
508241 508290
508241 509863
508241 508661
508241 509478
508241 510820
508290 508484
508290 510411
508290 512516
508290 508701
508290 508719
508290 511721
508290 510386
508290 508661
508290 508761
508290 508840
508290 508515
508290 511088
508290 510326
508290 509796
508290 508503
508290 508488
508290 511068
512391 512396
508484 508503
508484 508488
508484 508515
510633 510807
510633 510820
510633 509796
510633 510589
510633 510603
509182 509211
509182 509204
509182 509190
509182 509153
510101 509796
510101 510081
510326 510411
510326 510386
510326 508661
510326 508515
510326 509796
509796 509103
509796 509863
509796 510807
509796 510081
509796 511388
509796 510820
509796 508515
509796 508661
509796 510589
509796 510603
510807 510820
510807 510589
510807 510603
511388 509103
509211 509204
509211 509190
509211 509153
508503 508515
508503 508488
508488 508515
509204 509190
509204 509153
510589 510603
510589 510820
509190 509153
510603 510820
508515 510411
508515 508719
508515 510386
508515 508661
508515 508761
508515 508840
508515 511068
508515 511088
509103 513112
509103 509478
508661 510411
508661 508701
508661 508719
508661 511721
508661 510386
508661 508761
508661 508840
510411 510386
508719 511721
508719 508761
508719 508840
508761 508840
511088 511068
