505397 502788
505397 507700
505397 504357
505397 503581
505397 502720
502788 503066
502788 506479
502788 504418
502788 503250
502788 504536
502788 507700
502788 503816
502788 504173
502788 503052
502788 506369
502788 506598
502788 505869
502788 504202
502788 504155
502788 503944
502788 504357
502788 506297
502788 502943
502788 503446
502788 503646
502788 503914
502788 507656
502788 502720
502788 503406
502788 507381
502788 503023
502788 502929
502788 503109
502788 506462
502788 504702
502788 503581
507700 507656
507700 502720
507700 504357
507700 503581
504357 502720
504357 504173
504357 503998
504357 504202
504357 504155
504357 503581
504357 506097
503581 504418
503581 502943
503581 503446
503581 503646
503581 503250
503581 504536
503581 502720
503581 503406
503581 507381
503581 503816
503581 506369
503581 506598
503581 505869
503581 502929
503581 504202
503581 506297
502720 502943
502720 506822
502720 502718
502720 507656
502720 505723
502720 504173
502720 502929
502720 503998
502720 504202
502720 504155
502720 505691
502720 506097
503066 503052
503052 503023
506479 506462
504418 507381
503250 502943
503250 503446
503250 503406
503250 503235
504536 504202
504173 504202
504173 503998
504173 504155
505869 502943
504202 503998
504202 504155
504155 503998
503944 502943
503944 503914
502943 506822
502943 505691
502943 503446
502943 503914
502943 503406
502943 502929
503446 503406
502929 503109
506822 505691
505691 505723
