476290 476033
476290 477996
476290 477908
476290 475604
476290 476271
476033 476404
476033 477908
476033 476088
476033 476163
476033 476038
476033 477996
476033 478853
476033 475653
476033 476069
476033 476239
476033 475706
476033 479852
476033 475604
476033 476271
477996 477908
477996 476271
477908 476271
475604 477511
475604 476404
475604 477452
475604 477370
475604 477807
475604 475706
475604 479852
475604 476088
475604 476163
475604 477481
475604 478130
475604 475653
475604 477837
475604 476038
475604 476759
475604 479911
475604 475585
475604 479839
475604 479939
475604 479380
475604 476069
476271 478853
476271 476239
477511 477452
477511 477481
477452 477481
476404 476409
476404 476392
476404 476388
476404 475653
476409 476392
476409 476388
476392 476388
476392 476477
476392 475653
476388 475653
476388 476477
475653 475706
475653 475800
475653 476937
475653 478130
475653 476477
476088 475706
476088 476163
476088 476038
476088 476069
476163 476038
476163 476069
476038 476069
475706 476937
475706 475585
477807 477837
