5 10 175
10 5 168
5 7 51
7 5 47
5 6 31
6 5 29
5 3 25
3 5 25
4 5 18
5 4 18
7 10 13
36 5 11
3 7 10
7 3 10
10 7 10
5 13 9
5 36 8
13 5 8
20 5 7
10 3 6
5 20 6
10 33 6
33 10 5
5 51 5
3 10 4
50 5 4
51 5 4
7 6 3
13 10 3
5 14 3
14 5 3
33 5 3
10 14 3
14 10 3
6 7 2
8 5 2
10 6 2
10 13 2
6 14 2
5 1 2
1 5 2
24 25 2
5 28 2
6 10 2
5 33 2
5 45 2
28 5 2
5 50 2
51 50 2
54 5 2
1 2 1
2 1 1
1 3 1
3 4 1
6 8 1
6 9 1
9 5 1
6 3 1
5 11 1
11 5 1
5 12 1
12 5 1
7 13 1
14 6 1
14 1 1
1 15 1
15 1 1
1 16 1
16 1 1
1 17 1
17 5 1
5 18 1
18 19 1
19 1 1
1 20 1
5 21 1
21 10 1
10 22 1
22 5 1
10 23 1
23 5 1
5 24 1
25 10 1
10 26 1
26 5 1
5 27 1
27 21 1
21 5 1
28 29 1
29 10 1
10 30 1
30 5 1
3 31 1
31 6 1
10 32 1
32 5 1
10 34 1
34 35 1
35 36 1
5 37 1
37 36 1
10 38 1
38 5 1
5 38 1
38 36 1
3 21 1
21 7 1
5 39 1
39 5 1
5 40 1
40 5 1
5 41 1
41 5 1
10 42 1
42 5 1
10 43 1
43 10 1
10 24 1
25 5 1
13 1 1
1 44 1
44 5 1
45 46 1
46 47 1
47 5 1
45 30 1
30 7 1
7 48 1
48 28 1
3 49 1
49 6 1
6 50 1
50 51 1
10 8 1
5 52 1
52 5 1
5 53 1
53 5 1
10 4 1
4 54 1
5 54 1
