433065 432486
432486 433916
432486 436483
432486 439949
432486 433258
432486 432971
432486 433922
432486 432634
432486 439112
432486 433783
432486 434202
432486 434038
432486 432826
432486 434233
432486 433531
432486 433815
432486 433170
432486 439646
432486 433510
432486 437399
432486 436131
432486 432693
432486 436100
432486 439669
432486 432649
432486 432470
432486 437404
433916 433922
433922 433170
433922 434233
433922 432634
433922 433815
436483 436131
436483 436100
436131 432971
436131 433510
436131 436100
439949 434233
434233 433170
434233 433510
434233 437399
434233 432634
434233 434202
434233 438525
434233 439669
434233 437404
434233 434942
434233 433815
433258 433342
433258 433170
433258 432971
433342 433170
433170 432971
433170 439112
433170 433783
433170 433815
433170 432634
432971 433510
432971 439112
432971 432649
432634 433510
432634 439112
432634 433531
432634 433815
432634 432649
439112 439109
439112 433510
434202 433510
434202 432649
434038 433510
432826 433510
433531 433510
433510 434942
433510 432649
437399 437404
432649 435585
