415938 416753
415938 416534
415938 417091
415938 417958
415938 416202
415938 415840
415938 416198
415938 416868
415938 417421
415938 416728
415938 415900
415938 418503
415938 418205
415938 417486
415938 416537
415938 415810
415938 418403
416753 416534
416753 416926
416753 417091
416753 416558
416753 417958
416753 416202
416753 415840
416753 416198
416753 416868
416753 416728
416753 417486
416753 415900
416753 416537
416534 418621
416534 416926
416534 416621
416534 416868
416534 417421
416534 416728
416534 415900
416534 418503
416534 418886
416534 417486
416534 418403
416534 417091
416534 416558
416534 417958
416534 416202
416534 415840
416534 416198
416534 418205
416534 416537
417091 416926
417091 418503
417091 418403
417091 417958
417091 416202
417091 415840
417091 416198
417091 416868
417091 420645
417091 417421
417091 416728
417091 415900
417091 418205
417091 417486
417091 416537
417958 416198
417958 416868
417958 416728
417958 418503
417958 418205
417958 417486
417958 416537
417958 418403
417958 416202
417958 415840
417958 417421
417958 415900
416202 416926
416202 416621
416202 416558
416202 416198
416202 416868
416202 418503
416202 418205
416202 417486
416202 416537
416202 418403
416202 415840
416202 417421
416202 416728
416202 415900
415840 418621
415840 416926
415840 416621
415840 416558
415840 416198
415840 421131
415840 416728
415840 418503
415840 418205
415840 416537
415840 415810
415840 418403
415840 415831
415840 416868
415840 417421
415840 415900
415840 418886
415840 417486
416198 416926
416198 416621
416198 416558
416198 416868
416198 418503
416198 418205
416198 417486
416198 416537
416198 418403
416198 417421
416198 416728
416198 415900
416868 419645
416868 416926
416868 416558
416868 416728
416868 415900
416868 418503
416868 417486
416868 418403
416868 417421
416868 419648
416868 418205
416868 416537
417421 418621
417421 416926
417421 416728
417421 418503
417421 418205
417421 418403
417421 415900
417421 418886
417421 417486
417421 416537
416728 416926
416728 416558
416728 418503
416728 417486
416728 416537
416728 418403
416728 415900
416728 418205
415900 418621
415900 419645
415900 416926
415900 416621
415900 416558
415900 415831
415900 421131
415900 418503
415900 418205
415900 415810
415900 418403
415900 419648
415900 418886
415900 417486
415900 416537
418503 418205
418503 417486
418503 416537
418503 418403
418205 417486
418205 418403
418205 416537
417486 418621
417486 416926
417486 418886
417486 416537
417486 418403
416537 418621
416537 416926
416537 416621
416537 416558
416537 418886
416537 418403
415810 415831
418621 418886
416926 416558
416621 416558
419645 419648
