413537 408419
413537 413573
413537 408788
413537 413623
413537 412229
413537 412233
408419 411956
408419 409475
408419 412244
408419 412240
408419 414350
408419 412859
408419 412878
408419 409577
408419 408753
408419 408715
408419 413847
408419 412898
408419 414140
408419 415189
408419 414692
408419 408630
408419 409965
408419 413573
408419 414166
408419 412794
408419 415517
408419 415154
408419 414327
408419 408650
408419 413623
408419 409059
408419 413780
408419 412856
408419 409480
408419 412822
408419 412087
408419 409975
408419 412229
408419 412233
408419 412843
408419 409014
408419 414937
408419 411960
408419 412149
408419 408487
408419 412190
408419 410329
408419 409141
408419 412138
408419 408482
408419 412919
408419 408788
408419 410067
408419 410115
408419 414068
413573 412229
413573 412233
413573 413623
413573 408788
408788 412229
408788 412233
408788 409014
408788 414350
408788 414140
408788 414692
408788 410329
408788 414166
408788 414327
408788 413623
408788 413780
408788 409480
408788 414068
413623 412229
413623 412233
412229 412244
412229 412233
412229 412240
412229 409014
412229 412149
412229 412190
412229 412138
412233 412244
412233 412240
412233 409014
412233 412149
412233 412190
412233 412138
411956 411960
409475 409577
409475 409480
409577 409480
409480 414350
409480 414327
412244 412240
412244 409014
412244 412149
412244 412190
412244 412138
412240 409014
412240 412149
412240 412190
412240 412138
414350 414327
412859 412843
412859 409014
412859 412878
412859 412898
412859 412919
412859 412794
412859 412856
412859 412822
412859 412087
412878 412843
412878 409014
412878 412898
412878 412919
412878 412794
412878 412856
412878 412822
412878 412087
408715 408630
408715 408650
413847 409014
413847 413780
412898 412843
412898 409014
412898 412919
412898 412794
412898 412856
412898 412822
412898 412087
414140 409014
414140 414166
414140 414068
414692 409014
414692 413780
408630 408650
409965 409014
409965 409975
414166 409014
414166 414068
412794 412843
412794 409014
412794 415154
412794 412919
412794 412856
412794 412822
412794 412087
415517 409014
409059 409014
413780 409014
412856 412843
412856 409014
412856 412919
412856 412822
412856 412087
412822 412843
412822 409014
412822 412919
412822 412087
412087 412843
412087 409014
412087 412919
409975 409014
412843 409014
412843 412919
412843 414937
409014 412149
409014 408487
409014 412190
409014 410329
409014 412919
409014 410067
409014 414937
409014 409141
409014 412138
409014 414068
412149 412190
412149 412138
408487 408482
412190 412138
410067 410115
