379059 378044
379059 379151
379059 377310
379059 379782
379059 377732
379059 374729
379059 374811
379059 379540
379059 376655
379059 376436
378044 376655
378044 378371
378044 374729
378044 379540
378044 379151
378044 376436
378044 377992
378044 376670
378044 377310
378044 379782
378044 377732
379151 374811
379151 379540
379151 376655
379151 377310
379151 379782
379151 377732
379151 374729
377310 374811
377310 374671
377310 379540
377310 376436
377310 374974
377310 376670
377310 377646
377310 376041
377310 378371
377310 379782
377310 377732
377310 374729
379782 379540
379782 377732
377732 374671
377732 379540
377732 376436
377732 374729
374729 374811
374729 376880
374729 374671
374729 374735
374729 374906
374729 375126
374729 374761
374729 376655
374729 376923
374729 377493
374729 376436
374729 376837
374729 374974
374729 376565
374729 377992
374729 376963
374729 376670
374729 377646
374729 376041
374729 378371
374729 379432
374729 377007
374729 374731
374729 374891
374729 376908
374811 375004
374811 375892
374811 375126
374811 379852
374811 376565
374811 374978
374811 374995
374811 377992
374811 376670
374811 376041
374811 379432
374811 378270
374811 377007
374811 375373
374811 376655
374811 376436
374811 374974
374811 374805
374811 377668
374811 375901
379540 379538
376655 376436
376655 377992
376655 376670
376436 374671
376436 377493
376436 377992
376436 376670
376436 378270
376436 374974
376436 376041
377992 376670
377992 378270
376670 376565
375004 375373
375004 375658
375004 374978
375004 374995
375004 374974
375892 374978
374978 374974
374978 374995
374995 375373
374995 375658
374995 374974
376041 374974
375373 375658
374974 375901
377668 377493
377668 377646
376880 376837
374671 374668
374735 374731
374906 374891
378056 377646
377646 377493
376923 376963
376923 376908
376963 376908
