359263 357683
359263 359245
359263 357467
357683 359162
357683 358246
357683 361767
357683 358385
357683 357467
357683 357473
357683 360786
357683 360924
357683 360747
357683 358222
357683 358058
357683 358258
357683 357882
359245 357467
357467 357461
357467 361825
357467 360809
357467 358092
357467 359162
357467 358246
357467 361767
357467 357772
357467 361666
357467 358385
357467 361748
357467 358953
357467 357993
357467 358709
357467 361377
357467 358078
357467 359785
357467 357925
357467 357473
357467 360786
357467 360924
357467 360747
357467 358222
357467 358058
357467 358258
357467 357900
357467 360770
357467 357882
357467 361246
357461 357473
357473 360809
357473 361767
357473 361666
357473 361748
357473 360786
357473 360747
357473 359469
357473 357882
357473 359785
357473 361246
357473 360924
357473 360770
357473 361742
360809 360786
360809 360747
360809 360770
360786 360770
360786 360924
360786 360747
360747 360924
360747 360770
360770 360924
358092 358078
358078 357882
359162 357882
358246 358385
358246 358258
358246 358222
358258 358953
358258 358222
358222 358953
361767 361748
361767 361742
361748 361742
357925 357900
