346612 351677
346612 349992
346612 351203
346612 347222
346612 349276
346612 346924
346612 348207
346612 347100
346612 349975
346612 350254
346612 351483
346612 348001
346612 347563
346612 346584
346612 351193
346612 347374
346612 349290
346612 347347
346612 349995
346612 351456
346612 350725
346612 348785
346612 347093
346612 346635
346612 346629
351677 346629
351677 346635
349992 349995
349992 348785
349992 349975
349992 346635
351203 351193
347222 347374
347222 347347
347222 347100
347222 346635
346924 346635
347100 348785
347100 350254
347100 347093
349975 349995
349975 348785
349975 346635
351483 351456
348001 347374
348001 346635
348001 346629
348001 346584
346584 346635
346584 346629
347374 346635
347374 347347
347374 346629
349290 350725
347347 346635
349995 348785
349995 346635
348785 346635
346635 346629
