339463 339422
339463 338561
339463 338779
339463 339430
339463 338565
339422 342344
339422 342452
339422 342425
339422 338561
339422 342417
339422 338779
339422 339430
339422 338565
339422 339575
338561 338550
338561 340969
338561 341887
338561 338939
338561 338779
338561 339575
338561 338824
338561 338619
338561 338833
338561 339430
338561 338565
338561 338718
338561 339113
338779 338939
338779 338619
338779 338824
338779 338833
338779 339430
338779 338565
338779 339575
339430 338565
338565 342344
338565 338550
338565 340335
338565 342596
338565 342452
338565 340969
338565 342425
338565 343997
338565 344416
338565 341887
338565 344474
338565 344481
338565 338939
338565 342572
338565 338619
338565 339284
338565 342417
338565 342588
338565 344309
338565 340407
338565 342547
338565 345985
338565 338833
338565 340834
338565 342558
338565 338718
338565 339575
338565 338824
338565 339113
342344 339575
339575 338550
339575 340335
339575 344681
339575 340755
339575 340969
339575 344416
339575 339612
339575 341887
339575 344474
339575 344481
339575 338939
339575 339116
339575 341680
339575 338619
339575 340772
339575 339284
339575 344309
339575 340516
339575 340407
339575 338833
339575 340834
339575 339113
338550 340834
338550 343997
338550 338619
338550 338833
340834 342128
340834 343997
340834 338619
340834 344309
340834 340819
340834 342111
340834 342114
340834 343491
338619 344662
338619 344681
338619 340755
338619 340969
338619 344416
338619 341887
338619 344474
338619 344481
338619 338939
338619 339284
338619 342547
338619 338833
338619 338718
338619 338824
338833 342596
338833 340969
338833 344416
338833 341887
338833 344474
338833 344481
338833 338939
338833 342572
338833 339284
338833 342588
338833 342547
338833 345985
338833 342558
338833 338824
344662 344681
344662 338939
344681 338939
338939 344416
338939 344474
338939 344481
338939 339284
338939 342547
338939 338824
340335 340516
340335 340407
342128 342111
342128 342114
342111 342114
342596 342572
342596 342588
342596 342558
342572 342588
342572 342558
342588 342558
342452 342425
342452 342417
342425 342417
340755 340772
340755 339113
339113 339612
339113 339116
339113 339110
344416 344474
344416 344481
344416 339284
344474 344481
344474 339284
344481 339284
339116 341680
339116 339110
