337100 334436
337100 332700
337100 337093
334436 334747
334436 335070
334436 332700
334436 332864
334436 337093
334436 332490
334436 334428
332700 333903
332700 334747
332700 335070
332700 333419
332700 332851
332700 332802
332700 332490
332700 332660
332700 332767
332700 333281
332700 335281
332700 332864
332700 332664
332700 334428
332700 337093
332700 333197
332700 335227
333903 332864
333903 332851
333903 332802
333903 332490
333903 332660
333903 333197
333903 332664
332864 335070
332864 332851
332864 332802
332864 332490
332864 332660
332864 332767
332864 333351
332864 333197
332864 333588
332864 334428
332864 335601
332864 332664
332851 334514
332851 332802
332851 332490
332851 332660
332851 333197
332851 332664
332851 337831
332802 332660
332802 333281
332802 333351
332802 332664
332802 332490
332802 333197
332490 335533
332490 334514
332490 333784
332490 333556
332490 332552
332490 332660
332490 332767
332490 332535
332490 335281
332490 333197
332490 332664
332490 334428
332490 332593
332490 333281
332490 332487
332490 335227
332660 334514
332660 333556
332660 332958
332660 333281
332660 333351
332660 335281
332660 333197
332660 333588
332660 335601
332660 332767
332660 335227
332660 332664
333197 333784
333197 333281
333197 335281
333197 332664
333197 335227
332664 333281
332664 333351
332664 333588
332664 335601
335533 333281
333281 332593
333351 332767
332552 332593
332552 332487
332552 332535
332535 332593
332535 332487
335281 335227
332593 332487
