288151 288979
288151 296970
288151 289364
288151 289305
288151 292970
288151 290911
288151 288189
288151 292659
288151 288266
288151 292273
288151 292680
288151 289316
288151 289624
288151 294945
288151 294960
288151 295008
288151 290362
288151 297176
288151 292530
288151 296468
288151 289095
288151 292250
288151 288859
288979 288987
288979 289624
288979 292530
288979 288266
296970 297176
289364 288266
289305 289316
289305 289624
289305 288266
292970 288266
290911 288266
288189 288266
288189 296230
292659 292680
292659 288266
288266 296468
288266 289095
288266 292273
288266 292250
288266 289316
288266 289624
288266 294960
288266 295008
288266 292530
288266 294945
292273 292250
289624 288987
294945 294960
294945 295008
294960 295008
290362 289095
