1 8 21
8 1 21
2 1 17
1 2 16
5 1 10
1 5 8
8 7 8
1 9 8
9 1 8
17 19 8
19 17 8
28 26 8
7 8 7
1 7 6
9 8 6
26 28 6
3 4 5
4 3 5
7 1 5
8 9 5
19 18 5
8 22 4
22 24 4
24 22 4
20 19 3
9 19 3
19 9 3
1 34 3
49 6 3
6 49 3
43 22 3
22 43 3
1 3 2
6 1 2
7 9 2
13 14 2
18 19 2
19 20 2
11 26 2
7 5 2
30 28 2
34 1 2
11 28 2
51 50 2
50 51 2
9 34 2
34 9 2
49 19 2
53 40 2
16 54 2
7 58 2
58 1 2
59 49 2
22 8 2
8 43 2
43 8 2
7 6 2
3 1 1
5 6 1
3 5 1
1 10 1
10 11 1
11 12 1
12 11 1
11 13 1
14 3 1
3 13 1
14 15 1
15 11 1
11 15 1
15 16 1
16 17 1
17 18 1
18 17 1
19 16 1
16 19 1
17 21 1
21 9 1
22 23 1
23 24 1
24 23 1
23 22 1
22 25 1
25 22 1
22 11 1
26 27 1
27 15 1
15 28 1
28 29 1
29 15 1
15 29 1
29 7 1
1 30 1
28 31 1
31 32 1
32 33 1
33 32 1
32 34 1
34 35 1
35 36 1
36 17 1
17 37 1
37 17 1
17 38 1
38 37 1
37 34 1
34 39 1
39 35 1
35 5 1
5 2 1
34 2 1
2 40 1
40 41 1
41 40 1
40 42 1
42 25 1
25 42 1
42 43 1
43 44 1
44 45 1
45 46 1
46 47 1
47 46 1
46 19 1
18 29 1
29 11 1
28 11 1
11 48 1
48 28 1
26 11 1
28 49 1
49 50 1
50 49 1
49 51 1
51 49 1
49 7 1
9 50 1
50 5 1
5 44 1
44 43 1
43 9 1
9 49 1
18 20 1
18 11 1
11 30 1
30 11 1
26 9 1
1 52 1
52 8 1
9 53 1
40 53 1
40 16 1
54 16 1
54 55 1
55 56 1
56 55 1
55 57 1
57 16 1
16 1 1
1 6 1
19 8 1
22 7 1
58 7 1
7 17 1
17 7 1
9 58 1
1 59 1
49 59 1
8 30 1
26 30 1
30 8 1
9 30 1
30 9 1
8 60 1
60 61 1
61 60 1
60 12 1
12 61 1
61 8 1
1 43 1
43 1 1
1 11 1
11 1 1
1 26 1
26 14 1
14 28 1
28 62 1
62 7 1
6 7 1
6 50 1
50 8 1
8 16 1
16 63 1
63 16 1
16 64 1
