269358 269364
269358 265994
269364 265994
265994 267211
265994 267798
265994 271872
265994 269312
265994 269225
265994 270465
265994 270414
265994 265944
265994 272073
265994 264596
265994 265688
265994 270160
265994 272175
265994 265963
265994 265990
265994 271117
265994 269585
265994 265844
265994 265709
265994 271845
265994 265794
265994 268269
265994 266060
265994 270665
265994 266907
265994 265874
265994 272816
265994 264626
265994 265644
265994 268363
264644 264596
264644 272719
264644 264626
264596 266586
264596 265944
264596 265688
264596 264626
264596 267376
264596 271472
272719 264626
264626 265328
264626 267211
264626 267798
264626 271872
264626 269312
264626 266586
264626 272186
264626 270465
264626 270414
264626 265944
264626 271638
264626 272073
264626 265688
264626 272206
264626 270160
264626 272365
264626 264900
264626 272175
264626 265963
264626 265990
264626 271117
264626 265545
264626 265316
264626 267376
264626 269585
264626 265844
264626 265709
264626 271845
264626 265794
264626 272136
264626 270665
264626 266907
264626 266819
264626 266839
264626 265874
264626 265644
264626 272547
264626 264886
265328 265545
265328 265310
265328 265316
265545 265316
265310 265316
267211 272186
267211 265688
267211 272365
267211 265794
267211 265874
267211 272547
267211 272206
267211 272175
272186 272206
272186 272175
265688 265944
265688 265963
265688 265990
265688 265709
265688 265644
265688 265844
265688 265794
265688 265874
272365 272206
272365 272547
265794 267798
265794 265944
265794 265963
265794 265990
265794 265844
265794 265709
265794 266907
265794 265644
265794 266819
265794 266839
265794 265874
265874 267798
265874 265944
265874 265963
265874 265990
265874 265844
265874 265709
265874 265644
272547 272206
272206 272175
267798 265963
267798 265844
267798 265944
265963 271872
265963 270465
265963 270414
265963 265944
265963 272073
265963 270160
265963 265990
265963 271117
265963 265844
265963 265709
265963 271845
265963 266907
265963 268363
265963 268269
265963 266060
265963 265644
265844 265944
265844 265990
265844 265709
265844 266907
265844 265644
265844 266819
265844 266839
265944 271872
265944 270465
265944 270414
265944 272073
265944 265990
265944 271117
265944 269585
265944 265709
265944 271845
265944 268694
265944 270665
265944 266907
265944 270160
265944 268269
265944 265644
265944 268363
271872 270465
271872 270414
271872 272073
271872 265990
271872 271117
271872 271845
270465 272073
270465 270414
270465 265990
270465 271117
270465 271845
270414 272073
270414 265990
270414 271117
270414 271845
270414 268363
272073 265990
272073 271117
272073 271845
265990 271117
265990 265709
265990 271845
265990 265644
271117 270160
271117 266907
271117 271845
266586 267376
267376 271472
268363 268269
265709 266907
265709 266819
265709 266839
265709 265644
266907 270160
266907 266819
266907 266839
264900 264886
266819 266839
