246121 244168
246121 244637
246121 249722
244168 244628
244168 245545
244168 247831
244168 244567
244168 247695
244168 248510
244168 245636
244168 247620
244168 244320
244168 245840
244168 246794
244168 248104
244168 244637
244168 246605
244168 247128
244168 248044
244168 244338
244168 244846
244168 246393
244168 246758
244168 244631
244168 247865
244168 246194
244168 244769
244168 244761
244168 245348
244168 247793
244168 244226
244168 245553
244168 247785
244637 244628
244637 247831
244637 247695
244637 245636
244637 247620
244637 246543
244637 248104
244637 246605
244637 247128
244637 249652
244637 244631
244637 247865
244637 248044
244637 246531
244637 249660
244637 249388
244637 247793
244637 247785
244628 245636
244628 247128
244628 247831
244628 248843
244628 248044
244628 248859
244628 247793
244628 244631
244628 247785
245636 244631
247128 244631
247831 248044
247831 247793
247831 244631
247831 247865
247831 247785
248843 248859
248843 244631
248044 244631
248044 247793
248044 247785
248859 244631
247793 244631
247793 247785
244631 247620
244631 246543
244631 248104
244631 246605
244631 246531
244631 244769
244631 244761
244631 246758
244631 247785
245545 245348
247695 246794
247695 246605
246794 246605
246605 248510
246605 250344
246605 246543
246605 246531
247620 248104
244320 244338
244320 244226
244338 244226
245840 244761
245840 244769
244761 244769
244761 244846
244769 244846
244769 249761
244769 245553
249395 249388
249388 249660
249388 249652
249388 249837
246543 246531
249652 249660
249652 249837
