187791 187876
187791 187844
187791 187840
187791 187797
187791 187847
187791 187774
187791 187271
187791 187749
187791 187718
187791 187437
187876 187774
187876 187262
187876 187437
187876 187844
187876 187840
187876 187271
187876 187749
187876 187718
187876 187797
187876 187847
187844 187774
187844 187847
187844 187840
187844 187271
187844 187749
187844 187718
187844 187437
187844 187797
187840 187309
187840 188274
187840 188146
187840 190981
187840 187774
187840 187143
187840 189460
187840 188632
187840 189567
187840 188947
187840 188990
187840 188397
187840 187437
187840 189506
187840 189529
187840 188224
187840 187271
187840 187749
187840 187718
187840 187797
187840 187847
187797 187774
187797 187271
187797 187749
187797 187718
187797 187437
187797 187847
187847 192071
187847 192077
187847 187774
187847 189460
187847 187262
187847 188632
187847 189567
187847 188947
187847 187271
187847 187749
187847 188990
187847 187718
187847 187437
187847 189506
187847 189529
187774 187271
187774 187749
187774 187718
187774 187437
187271 187309
187271 187643
187271 187262
187271 187257
187271 187749
187271 187718
187271 187437
187271 187660
187749 187437
187749 187718
187718 187309
187718 188146
187718 187968
187718 190981
187718 192346
187718 190188
187718 187143
187718 188968
187718 188007
187718 187262
187718 188632
187718 189567
187718 188947
187718 188380
187718 188001
187718 188990
187718 188087
187718 188397
187718 187125
187718 189506
187718 187437
187437 188274
187437 191207
187437 188146
187437 191906
187437 187968
187437 187509
187437 186897
187437 188402
187437 190188
187437 187643
187437 188141
187437 187143
187437 187891
187437 189460
187437 188007
187437 187262
187437 188632
187437 193399
187437 186948
187437 189567
187437 188947
187437 191994
187437 188380
187437 188001
187437 188224
187437 188491
187437 190675
187437 188437
187437 191166
187437 191169
187437 188990
187437 188554
187437 187060
187437 188087
187437 188397
187437 187125
187437 187660
187437 189506
187437 189529
193002 186953
193002 193005
186953 192346
186953 187047
186953 188925
186953 186948
186953 191994
186953 192282
186953 186897
186953 188933
186953 188402
186953 188007
186953 193005
187309 188146
187309 190981
187309 187143
187309 187262
187309 188632
187309 187257
187309 188947
187309 188397
187309 189506
188146 190981
188146 190734
188146 188141
188146 187143
188146 188947
188146 190739
188146 188380
188146 190675
188146 188397
188146 187125
188146 190657
188146 189506
190981 187143
190981 188947
190981 188397
190981 189506
187143 188274
187143 191207
187143 187968
187143 190734
187143 187117
187143 186897
187143 190188
187143 188141
187143 188799
187143 192760
187143 187262
187143 193399
187143 186948
187143 188947
187143 190739
187143 188380
187143 188491
187143 190675
187143 189422
187143 188087
187143 188397
187143 187125
187143 189506
187143 187891
187143 188007
187143 189567
187143 188001
187143 188224
187143 191166
187143 191169
187143 187060
187143 190657
187143 190163
187143 188796
187262 192346
187262 186897
187262 188799
187262 187257
187262 188632
187262 188947
187262 188380
187262 188491
187262 187125
188632 189460
188632 188968
188632 188660
188632 187257
188632 189567
188632 188990
188632 188708
188632 189529
188632 188947
188632 189506
188632 188628
187257 188947
188947 188799
188947 189460
188947 188968
188947 189567
188947 188990
188947 187125
188947 189506
188947 189529
188947 188491
188947 188397
188397 188402
188397 188380
188397 188437
188397 189506
189506 188737
189506 189460
189506 189567
189506 188491
189506 188990
189506 189529
192071 192077
188274 188224
188274 188554
188224 190550
188224 190536
191207 191166
191207 191169
191166 191169
190734 190739
190734 188380
190734 190675
190734 190657
188141 187125
190739 188380
190739 190675
190739 190657
188380 192346
188380 188402
188380 188437
188380 190675
188380 190657
190675 191994
190675 190657
187125 187968
187125 187117
187125 186897
187125 188799
187125 187891
187125 188007
187125 188774
187125 188001
187125 188491
187125 189422
187125 188087
187125 188796
191906 188007
188007 192346
188007 187047
188007 186897
188007 188925
188007 188933
188007 190513
188007 188402
188007 186948
188007 191994
188007 192282
188007 187193
188007 188087
188007 188001
188007 193172
187968 187891
187968 187060
187891 188367
187891 188348
187060 187047
192346 191994
192346 188402
192346 186948
192346 192282
191994 188933
191994 188402
191994 186948
191994 192282
191994 191989
188402 186948
188402 192282
188402 188437
186948 187047
186948 186897
186948 188925
186948 188933
186948 192282
186948 187193
187509 187548
187509 187532
187509 187526
187548 187532
187548 187526
187532 187526
188367 188348
187047 188925
187047 186897
187047 188933
188925 186897
188925 190513
188925 191412
188925 188933
186897 190513
186897 191412
186897 188933
186897 186892
186897 188491
188933 190513
188933 191412
188933 191989
188933 187193
190513 191412
188491 188799
188491 188774
188491 188796
188491 189422
191989 193399
187193 187200
187193 187099
188737 188747
190188 189567
189567 189460
189567 188990
189567 189529
187643 187660
188799 188774
188799 188796
188774 188796
193399 193506
188087 188001
189460 188990
189460 189529
188990 188968
188990 189529
188660 188628
190550 190536
