181640 181684
181640 181496
181684 181240
181684 182357
181684 181496
181496 183275
181496 181240
181496 182357
181496 181811
184819 182158
184819 181811
182158 181240
182158 181836
182158 181811
182158 181382
181811 183275
181811 181240
181811 181707
181811 181712
181811 181262
181811 181858
181811 182353
181811 181861
181811 181836
181811 182827
181811 182968
181811 182848
181811 181382
181800 181240
181800 182357
181800 182353
181240 183275
181240 181269
181240 182357
181240 181858
181240 182353
181240 181861
181240 181836
181240 181382
181240 181262
181240 181257
182357 182353
182353 182827
182353 181382
181375 181382
181382 181753
181382 183275
181382 181836
181382 182827
183275 182827
183275 182848
183275 181262
182827 181262
182827 182848
182848 181262
182848 181858
182848 181861
181262 181269
181262 181257
181269 181257
181858 181861
181707 181712
