148135 148163
148163 147379
148163 148609
148163 149270
148163 149430
148163 151769
148163 149887
148163 148456
148163 147521
148163 151756
148163 147524
148163 149865
148163 148259
148163 149440
148163 147485
148398 147379
148398 148456
148398 148544
148398 147521
148398 147485
148398 147547
148398 147524
148398 148337
147379 152586
147379 150857
147379 149879
147379 148609
147379 149270
147379 150662
147379 150149
147379 148544
147379 147547
147379 149865
147379 147713
147379 148337
147379 147668
147379 147645
147379 150518
147379 149440
147379 150291
147379 151212
147379 149964
147379 149887
147379 148456
147379 147521
147379 151109
147379 151234
147379 147485
147379 149078
147379 152833
147379 147524
147379 147719
148456 149270
148456 149430
148456 149964
148456 149887
148456 150662
148456 147521
148456 148544
148456 149078
148456 147524
148456 147713
148456 147485
148456 147547
148456 147719
147521 150003
147521 149988
147521 150857
147521 149879
147521 147668
147521 147509
147521 150518
147521 150291
147521 149964
147521 149887
147521 150662
147521 147485
147521 147547
147521 149865
147521 147719
147521 148337
147521 150149
147521 147524
147521 147577
147485 149879
147485 147509
147485 149270
147485 150291
147485 147678
147485 149887
147485 150149
147485 151234
147485 149078
147485 149865
147485 147713
147485 148337
147485 147547
147485 147524
147485 147719
147485 147577
147547 150003
147547 149988
147547 149879
147547 150291
147547 149964
147547 149887
147547 147541
147547 150149
147547 149078
147547 148337
147547 147524
147547 147618
147524 150003
147524 150857
147524 149879
147524 147668
147524 147509
147524 150494
147524 149270
147524 150518
147524 150291
147524 149964
147524 149887
147524 150149
147524 149078
147524 149865
147524 147713
147524 148337
147524 147719
150003 149887
150003 149988
149887 149988
149887 150857
149887 151234
149887 149865
149887 147719
152586 150291
150291 149879
150291 150149
150291 149865
150291 147719
149879 149865
149879 150518
149879 149964
149879 150149
148609 151769
148609 151756
148609 148259
148609 149440
149270 149592
149270 149430
149270 149440
149270 147719
149270 147713
150149 150518
150149 149964
150149 149865
149865 150518
149865 149964
149865 147719
147713 147509
147713 147678
147713 151538
147713 151500
147713 151109
147713 147719
147713 151493
147713 147577
147668 147645
150518 149964
149440 149592
149440 149430
151212 151141
151212 151109
151212 147719
149964 147509
151109 151141
151109 147509
151109 151538
151109 151500
151109 147541
151109 147719
151109 151493
149078 152833
149078 147719
147719 151141
147719 147509
147719 148259
147719 152199
147719 149430
147719 147678
147719 147541
147719 147577
151141 147541
149430 149592
151769 151756
147509 147678
147509 151538
147509 151500
147509 151493
147509 147577
147678 147577
151538 151500
151538 151493
151500 151493
149592 149813
