144705 144694
144705 144251
144705 144181
144705 144320
144705 144649
144694 146977
144694 144181
144694 146973
144694 144251
144694 144754
144694 144312
144694 144320
144694 144649
144251 146977
144251 145828
144251 144181
144251 144320
144251 146973
144251 144649
144251 145500
144251 144754
144251 144312
144181 146977
144181 145828
144181 146973
144181 144649
144181 144320
144181 144754
144181 144312
144320 146977
144320 145828
144320 144312
144320 146973
144320 144754
144649 144312
146977 146973
146977 144754
146977 144312
146973 144754
146973 144312
144754 145828
144754 145634
144754 144312
144312 145634
