138598 137186
137186 138025
137186 140881
137186 140712
137186 139626
137186 142211
137186 138212
137186 141054
137186 143930
137186 140057
137186 137338
137186 139867
137186 137588
137186 137486
137186 137262
137186 138968
138511 138360
138511 137262
138511 137588
138360 137588
138360 137262
137262 138025
137262 139416
137262 137588
137262 138212
137262 141485
137262 137338
137588 139553
137588 139562
137588 138025
137588 138212
137588 137671
137588 137250
137588 137247
137588 137338
137588 137303
137662 137671
137671 139159
139553 139562
138025 138212
137250 137247
137250 137303
137247 137303
137303 137316
