133879 134411
133879 134460
133879 135572
133879 136233
133879 134790
133879 134513
133879 136295
133879 134055
133879 134499
133879 135519
133879 137027
133879 135622
133879 135595
133879 136606
133879 136549
133879 135150
133879 134314
133879 134134
133879 135641
133879 135684
133879 135692
133879 134992
133879 134655
133879 134141
133879 134394
133879 134403
133879 136143
133879 135581
133879 133964
133879 134406
133879 133988
133879 134463
133879 134571
133879 137071
133879 133992
133879 134066
133879 134219
133879 134222
133879 134188
133879 136678
133879 136674
133879 133928
133879 134638
134411 134134
134411 134141
134411 134394
134411 134403
134411 134406
134460 134463
134460 134513
134460 134499
134460 137027
134460 135150
134460 134134
134460 134571
134460 136606
134460 134314
135572 135622
135572 135595
135572 135641
135572 135581
134790 134134
134513 134463
134513 134571
134513 134499
136295 134134
136295 134499
134055 133988
134055 133992
134499 134463
134499 135138
134499 134571
134499 137027
134499 135150
134499 134134
134499 135143
134499 136606
134499 134314
134499 136782
137027 134571
137027 136606
137027 134314
137027 134134
135622 135641
135622 135595
135622 135581
135595 135641
135595 135581
136606 134571
136606 134134
136606 134314
135150 135138
135150 134571
135150 135143
134314 134756
134314 135845
134314 134571
134314 135850
134314 137071
134314 134134
134314 134141
134314 136678
134314 136674
134314 136654
134134 134571
134134 134188
134134 134992
134134 134394
134134 134403
134134 133964
134134 134406
134134 134141
134134 134127
135641 135684
135641 135692
135641 135581
135684 135692
134655 134638
134141 134188
134141 134394
134141 134403
134141 134406
134141 134127
134394 134571
134394 134403
134394 135972
134394 134406
134403 134571
134403 135972
134403 134406
136143 134638
133964 134188
133988 133992
134463 134571
134571 134756
134571 136654
134571 135972
134571 136678
134571 136674
134219 134222
136678 134756
136678 136654
136678 136674
136674 134756
136674 136654
135138 135143
134756 136654
135845 135850
