41010 40822
41010 40771
40822 41280
40822 42593
40822 40765
40822 40805
40822 45508
40822 42246
40822 42189
40822 40771
40822 44183
40822 40832
40822 46347
40822 44994
40822 42079
40822 45195
40822 45169
40822 42449
40822 45944
40822 42108
40822 41338
40822 42417
40822 40910
40771 41280
40771 42593
40771 45395
40771 40765
40771 40805
40771 42246
40771 43565
40771 42449
40771 41239
40771 42256
40771 45944
40771 42108
40771 42420
40771 42189
40771 41338
40771 44183
40771 42283
40771 43094
40771 43541
40771 40832
40771 46347
40771 41120
40771 44994
40771 42417
40771 43341
40771 42079
40771 40910
40771 42252
40771 41109
41280 45395
41280 43565
41280 42108
41280 43541
41280 46347
41280 43341
41280 40910
41280 42079
41280 42252
41280 40765
41280 42449
41280 41239
41280 42420
41280 41338
41280 42417
43565 42449
43565 42420
43565 41338
43565 43541
43565 42417
42108 45931
42108 40765
42108 45508
42108 42246
42108 45169
42108 42449
42108 45944
42108 42189
42108 44183
42108 46347
42108 45195
42108 41338
42108 42417
42108 40910
42108 42079
43541 42449
43541 42420
43541 41338
43541 42417
46347 40765
46347 41338
40910 45931
40910 40765
40910 40805
40910 42449
40910 45944
40910 41338
40910 42417
40910 42079
42252 40765
42252 42246
42252 42449
42252 42256
42252 42420
42252 41338
42252 42283
42252 42417
40765 40805
40765 40832
40765 41338
42449 42420
42449 41338
42449 42417
42420 41338
42420 42417
41338 42246
41338 42256
41338 42283
41338 42417
45931 45944
40805 40832
42246 42256
42246 42283
45195 45169
42256 42283
41120 41109
