5584607 5583033
5584607 5583321
5583033 5587740
5583033 5587732
5583033 5584580
5583033 5585084
5583033 5583321
5583033 5585171
5583033 5583584
5583033 5583028
5583033 5583557
5583033 5583510
5583321 5587740
5583321 5585040
5583321 5587732
5583321 5586816
5583321 5584580
5583321 5584276
5583321 5587866
5583321 5588131
5583321 5583986
5583321 5584655
5583321 5585579
5583321 5583963
5583321 5585084
5583321 5585171
5583321 5583584
5583321 5585299
5583321 5583345
5583321 5584833
5583321 5583557
5583321 5585044
5583321 5583816
5583321 5583510
5583321 5584962
5587740 5587732
5585040 5585579
5585040 5585084
5585040 5584833
5585040 5585044
5585040 5584962
5585579 5585084
5585579 5584833
5585579 5584962
5585084 5588131
5585084 5584833
5585084 5584962
5585084 5585044
5584833 5585299
5584833 5585044
5584833 5584962
5585044 5584962
5584962 5587866
5584276 5583816
5583816 5583986
5583816 5583963
5583584 5583557
5583584 5583510
5583557 5583510
5583986 5583963
