5481216 5481357
5481216 5481158
5481216 5484053
5481216 5481205
5481216 5484484
5481216 5481208
5481216 5484693
5481216 5482789
5481216 5481213
5481216 5484674
5481216 5481623
5481216 5487608
5481216 5484023
5481216 5481350
5481216 5484583
5481216 5481500
5481216 5481566
5481216 5481422
5481216 5482255
5481216 5484806
5481216 5481587
5481216 5484616
5481216 5481120
5481216 5481557
5481216 5481508
5481216 5481238
5481216 5481563
5481216 5481470
5481216 5484619
5481357 5481205
5481357 5481422
5481357 5482255
5481357 5481208
5481357 5481238
5481357 5481432
5481357 5481350
5481357 5481309
5481357 5481158
5481357 5481273
5481158 5485641
5481158 5482033
5481158 5484023
5481158 5481350
5481158 5481480
5481158 5481309
5481158 5481760
5481158 5485001
5481158 5486143
5481158 5487736
5481158 5484484
5481158 5481566
5481158 5481422
5481158 5486647
5481158 5486299
5481158 5482255
5481158 5485128
5481158 5486113
5481158 5484616
5481158 5486147
5481158 5486308
5481158 5486106
5481158 5482789
5481158 5481213
5481158 5481623
5481158 5481432
5481158 5482040
5481158 5487608
5481158 5484619
5481158 5488667
5481158 5484053
5481158 5481205
5481158 5484583
5481158 5486639
5481158 5488161
5481158 5484806
5481158 5481587
5481158 5481120
5481158 5481557
5481158 5481508
5481158 5486630
5481158 5481208
5481158 5484693
5481158 5481273
5481158 5481238
5481158 5484674
5481158 5481563
5481158 5481470
5484053 5484023
5484053 5481208
5484053 5482789
5481205 5482033
5481205 5485749
5481205 5481350
5481205 5481480
5481205 5481309
5481205 5482441
5481205 5481760
5481205 5486143
5481205 5484484
5481205 5481500
5481205 5481566
5481205 5481422
5481205 5486647
5481205 5482255
5481205 5486113
5481205 5486147
5481205 5484693
5481205 5486106
5481205 5482789
5481205 5481213
5481205 5484674
5481205 5481432
5481205 5482040
5481205 5487608
5481205 5482374
5481205 5484583
5481205 5485001
5481205 5487736
5481205 5488161
5481205 5485128
5481205 5484806
5481205 5484616
5481205 5481120
5481205 5481208
5481205 5481273
5481205 5481238
5481205 5481470
5481205 5484619
5484484 5481350
5484484 5482255
5484484 5481208
5484484 5482789
5484484 5481238
5481208 5485641
5481208 5482033
5481208 5484023
5481208 5485749
5481208 5481350
5481208 5481480
5481208 5481309
5481208 5488667
5481208 5482441
5481208 5481760
5481208 5482374
5481208 5484583
5481208 5485001
5481208 5486143
5481208 5487736
5481208 5481500
5481208 5481566
5481208 5481422
5481208 5486647
5481208 5482255
5481208 5488161
5481208 5485128
5481208 5484806
5481208 5481587
5481208 5486113
5481208 5484616
5481208 5481120
5481208 5481557
5481208 5486147
5481208 5481508
5481208 5484693
5481208 5486106
5481208 5482789
5481208 5481213
5481208 5484674
5481208 5481623
5481208 5481563
5481208 5481432
5481208 5482040
5481208 5481273
5481208 5481238
5481208 5481470
5481208 5487608
5481208 5484619
5484693 5481350
5484693 5484583
5484693 5482255
5484693 5484806
5484693 5484616
5484693 5481238
5484693 5484674
5484693 5484619
5482789 5484023
5482789 5481350
5482789 5487736
5482789 5486647
5482789 5482255
5482789 5485128
5482789 5484806
5482789 5484616
5482789 5481213
5482789 5481238
5482789 5487608
5482789 5484619
5481213 5481350
5481213 5482255
5481213 5481120
5481213 5481238
5484674 5481350
5484674 5484583
5484674 5482255
5484674 5484806
5484674 5484616
5484674 5481238
5484674 5484619
5481623 5481566
5481623 5481587
5481623 5481557
5481623 5481508
5481623 5481563
5487608 5481350
5487608 5487736
5487608 5482255
5487608 5485128
5487608 5484806
5487608 5484616
5487608 5481238
5487608 5484619
5481350 5485641
5481350 5482033
5481350 5482441
5481350 5485001
5481350 5486143
5481350 5487736
5481350 5481500
5481350 5486639
5481350 5485128
5481350 5486113
5481350 5484616
5481350 5486147
5481350 5486630
5481350 5486308
5481350 5486106
5481350 5481432
5481350 5481470
5481350 5482040
5481350 5484619
5481350 5481480
5481350 5481309
5481350 5488667
5481350 5481760
5481350 5482374
5481350 5484583
5481350 5481566
5481350 5481422
5481350 5486647
5481350 5486299
5481350 5482255
5481350 5488161
5481350 5484806
5481350 5481273
5481350 5481238
5484583 5482255
5484583 5484806
5484583 5484616
5484583 5481238
5484583 5484619
5481500 5481480
5481500 5482441
5481500 5482374
5481500 5481238
5481500 5481422
5481500 5482255
5481500 5481470
5481566 5482033
5481566 5481480
5481566 5481760
5481566 5481422
5481566 5481587
5481566 5481470
5481566 5482040
5481566 5481557
5481566 5481508
5481566 5481563
5481422 5482033
5481422 5481480
5481422 5481309
5481422 5482441
5481422 5481760
5481422 5482374
5481422 5485001
5481422 5481432
5481422 5481470
5481422 5482040
5481422 5482255
5481422 5485128
5481422 5484806
5481422 5484616
5481422 5481273
5481422 5481238
5481422 5484619
5482255 5481480
5482255 5488667
5482255 5482441
5482255 5482374
5482255 5485001
5482255 5487736
5482255 5486647
5482255 5481238
5482255 5481470
5482255 5484619
5482255 5488161
5482255 5485128
5482255 5484806
5482255 5484616
5484806 5485001
5484806 5487736
5484806 5486647
5484806 5486639
5484806 5485128
5484806 5484616
5484806 5481238
5484806 5481470
5484806 5484619
5484806 5486630
5481587 5481557
5481587 5481508
5481587 5481563
5484616 5485001
5484616 5487736
5484616 5486647
5484616 5486639
5484616 5485128
5484616 5481238
5484616 5481470
5484616 5486630
5484616 5484619
5481120 5481238
5481557 5481563
5481557 5481508
5481508 5481563
5481238 5488667
5481238 5485001
5481238 5487736
5481238 5485128
5481238 5481470
5481238 5484619
5481563 5481480
5481563 5481432
5481470 5482033
5481470 5481480
5481470 5482441
5481470 5481760
5481470 5482374
5481470 5485001
5481470 5486143
5481470 5486299
5481470 5485128
5481470 5486113
5481470 5486147
5481470 5486308
5481470 5486106
5481470 5482040
5481470 5484619
5484619 5485001
5484619 5487736
5484619 5486647
5484619 5486639
5484619 5485128
5484619 5486630
5482033 5482040
5482033 5481480
5482033 5481760
5482040 5481480
5482040 5481760
5481480 5488161
5481480 5486308
5481480 5481432
5481480 5481760
5481480 5486299
5481432 5481309
5481432 5481273
5481309 5481273
5482441 5482374
5485001 5485128
5485001 5486647
5485001 5486639
5485001 5486630
5486143 5486147
5486143 5486113
5486143 5486106
5487736 5485128
5486639 5486647
5486639 5486630
5486113 5486147
5486113 5486106
5486147 5486106
5486630 5486647
5486308 5486299
