5378472 5373975
5373975 5374717
5373975 5374369
5373975 5373973
5373975 5374680
5373975 5374525
5373975 5378261
5373975 5377990
5373975 5374301
5373975 5375357
5373975 5374542
5373975 5378432
5373975 5379100
5373975 5375728
5373975 5377706
5373975 5377735
5373975 5376952
5373975 5379353
5373975 5379258
5373975 5374317
5373975 5375185
5373975 5377119
5373975 5375622
5373975 5377987
5374717 5374301
5374301 5378261
5374301 5377990
5374301 5374317
5374301 5375185
5374301 5377119
5374301 5377987
5374301 5377706
5374301 5377735
5374369 5375728
5375728 5374542
5375728 5379100
5375728 5376952
5375728 5379353
5375728 5379258
5374525 5374542
5374542 5376952
5374542 5379353
5374542 5379258
5377990 5377987
5374317 5375357
5374317 5376952
5374317 5377119
5374317 5375622
5374317 5375185
5375185 5375622
5377706 5377735
5376952 5379353
5376952 5379258
5379353 5379258
