5359675 5359681
5359675 5358854
5359675 5359641
5359675 5359550
5359675 5359396
5359675 5359261
5359681 5358854
5359681 5359641
5359681 5359550
5359681 5359396
5359681 5359261
5358854 5360631
5358854 5360328
5358854 5359641
5358854 5360039
5358854 5360452
5358854 5359420
5358854 5359396
5358854 5359400
5358854 5359472
5358854 5359340
5358854 5360397
5358854 5358851
5358854 5359503
5358854 5359001
5358854 5359550
5358854 5359027
5358854 5359532
5358854 5359392
5358854 5360275
5358854 5360902
5358854 5359281
5358854 5359261
5358854 5360360
5358854 5360175
5358854 5360249
5358854 5358972
5358854 5359077
5358854 5360306
5358854 5359180
5358854 5360477
5358854 5359436
5359641 5359550
5359641 5359396
5359641 5359261
5359550 5359396
5359550 5359261
5359396 5359392
5359396 5359400
5359396 5359180
5359396 5359261
5359261 5359392
5359261 5359400
5359261 5359281
5359261 5359340
5359261 5359077
5359261 5359180
5360631 5359180
5360631 5360039
5359180 5360039
5359180 5359420
5359180 5359392
5359180 5359400
5359180 5359472
5359180 5360902
5359180 5359281
5359180 5359771
5359180 5359340
5359180 5359077
5359180 5359503
5359180 5360960
5359180 5359436
5360039 5359001
5360328 5360452
5360328 5360275
5360328 5360360
5360328 5360397
5360328 5360306
5360328 5359436
5360452 5360275
5360452 5360360
5360452 5360397
5360452 5360306
5360452 5359436
5360275 5360360
5360275 5360397
5360275 5360249
5360275 5360306
5360275 5359436
5360360 5360397
5360360 5360306
5360360 5359436
5360397 5360306
5360397 5359436
5360306 5359436
5359436 5359420
5359436 5360249
5359420 5359392
5359420 5359503
5359420 5359472
5359420 5359281
5359400 5359392
5359472 5359392
5359472 5359503
5359472 5359281
5359340 5359281
5359340 5359077
5358851 5359001
5358851 5359027
5358851 5359704
5358851 5359281
5358851 5360175
5358851 5358972
5358851 5359077
5359503 5359392
5359503 5359281
5359001 5359027
5359001 5359281
5359001 5358972
5359001 5359704
5359001 5360175
5359001 5359077
5359027 5360902
5359027 5360910
5359027 5359281
5359027 5359704
5359027 5360175
5359027 5358972
5359027 5359077
5359532 5359392
5359392 5359281
5360902 5360910
5359281 5360175
5359281 5358972
5359281 5359077
5360175 5358972
5360175 5359077
5358972 5359704
5358972 5360910
5358972 5359077
5358972 5360960
5360910 5360960
