5147458 5147005
5147458 5147453
5147458 5147530
5147458 5148193
5147458 5147116
5147458 5147465
5147458 5147500
5147458 5150054
5147005 5147016
5147005 5147465
5147005 5147500
5147005 5147453
5147005 5150352
5147005 5147951
5147005 5147259
5147005 5150054
5147005 5146983
5147005 5148193
5147005 5147116
5147005 5148010
5147005 5146986
5147453 5148193
5147453 5147116
5147453 5147465
5147453 5147500
5147453 5147530
5147530 5148193
5147530 5147500
5148193 5149231
5148193 5148977
5148193 5147116
5148193 5147465
5148193 5147500
5147116 5150987
5147116 5147016
5147116 5148977
5147116 5147465
5147116 5147500
5147116 5150352
5147116 5147259
5147116 5146983
5147465 5147500
5147016 5146983
5147016 5146986
5146983 5146986
5149231 5148977
