5141323 5135723
5141323 5135596
5141323 5140021
5141323 5135055
5141323 5141319
5135723 5135596
5135723 5135074
5135723 5140021
5135723 5135042
5135723 5135055
5135723 5141319
5135723 5135755
5135723 5135720
5135596 5135042
5135596 5141319
5135596 5135606
5135596 5140021
5135596 5134994
5135596 5135055
5140021 5136331
5140021 5136141
5140021 5141319
5140021 5137145
5140021 5136405
5140021 5135755
5140021 5140750
5140021 5136154
5140021 5136328
5140021 5135055
5135055 5136714
5135055 5139114
5135055 5136866
5135055 5136021
5135055 5135074
5135055 5136793
5135055 5137099
5135055 5136565
5135055 5135042
5135055 5136331
5135055 5136141
5135055 5136625
5135055 5137111
5135055 5134994
5135055 5141319
5135055 5136800
5135055 5140750
5135055 5135252
5135055 5137145
5135055 5136405
5135055 5135755
5135055 5136517
5135055 5135720
5135055 5137987
5135055 5140260
5135055 5136154
5135055 5136328
5135042 5136714
5135042 5139114
5135042 5136866
5135042 5135074
5135042 5136793
5135042 5137099
5135042 5136565
5135042 5137111
5135042 5136800
5135042 5135755
5135042 5135720
5135042 5137987
5135042 5136154
5135042 5136331
5135042 5136141
5135042 5136625
5135042 5134994
5135042 5137145
5135042 5135606
5135042 5136405
5135042 5136517
5135042 5135252
5135042 5136328
5135606 5134994
5134994 5135074
5134994 5135252
5136714 5136793
5136714 5136800
5136714 5136565
5136714 5136331
5136714 5136141
5136714 5136625
5136714 5136405
5136714 5136517
5136714 5136328
5136793 5136800
5136793 5136565
5136793 5136331
5136793 5136141
5136793 5136625
5136793 5136405
5136793 5136517
5136793 5136328
5136800 5136565
5136800 5136331
5136800 5136141
5136800 5136625
5136800 5136405
5136800 5136517
5136800 5136328
5136565 5136625
5136565 5136328
5136565 5136331
5136565 5136141
5136565 5136405
5136565 5136517
5136331 5136141
5136331 5136625
5136331 5136405
5136331 5135755
5136331 5136154
5136331 5136328
5136331 5137111
5136331 5137145
5136331 5136517
5136141 5136021
5136141 5136625
5136141 5137111
5136141 5136405
5136141 5140750
5136141 5136154
5136141 5135755
5136141 5136517
5136141 5136328
5136625 5136405
5136625 5136517
5136625 5136328
5136405 5140750
5136405 5136517
5136405 5136328
5136405 5136154
5136517 5136866
5136517 5137099
5136517 5137111
5136517 5137145
5136517 5136154
5136517 5136328
5136328 5137111
5136328 5137145
5136328 5135755
5136328 5136154
5139114 5136866
5139114 5136154
5136866 5136154
5136866 5137099
5136866 5137111
5136866 5137078
5136866 5137145
5136866 5137987
5136154 5136021
5136154 5137099
5136154 5137111
5136154 5137145
5136154 5140260
5137099 5137145
5137099 5137111
5137111 5137145
5135074 5135755
5135074 5135720
5135074 5135252
5135755 5135720
