5126611 5126470
5126611 5126646
5126611 5126625
5126611 5126596
5126611 5126813
5126611 5127475
5126611 5130165
5126470 5126646
5126470 5126734
5126470 5130518
5126470 5129877
5126470 5127338
5126470 5126625
5126470 5128401
5126470 5127136
5126470 5130496
5126470 5127917
5126470 5130730
5126470 5130741
5126470 5131990
5126470 5128508
5126470 5128520
5126470 5127684
5126470 5128644
5126470 5128039
5126470 5131633
5126470 5128192
5126470 5128189
5126470 5128110
5126470 5126813
5126470 5128917
5126470 5130924
5126470 5131656
5126470 5127251
5126470 5131137
5126470 5131143
5126470 5131140
5126470 5128539
5126470 5130850
5126470 5128454
5126470 5127082
5126470 5127882
5126470 5127475
5126470 5130982
5126470 5127200
5126470 5126596
5126470 5131090
5126470 5130165
5126470 5128623
5126470 5132707
5126470 5130689
5126470 5127877
5126646 5126625
5126646 5126596
5126625 5126596
5126625 5126813
5126596 5126813
5127475 5127136
5127475 5127684
5127475 5130165
5133616 5128454
5133616 5128917
5133616 5133639
5128454 5126734
5128454 5133639
5128454 5129867
5128454 5129877
5128454 5130557
5128454 5130370
5128454 5132693
5128454 5130605
5128454 5130635
5128454 5129217
5128454 5129171
5128454 5129236
5128454 5129199
5128454 5127917
5128454 5128508
5128454 5128520
5128454 5128917
5128454 5128401
5128454 5130982
5128454 5128644
5128454 5129562
5128454 5129491
5128454 5128039
5128454 5129626
5128454 5128623
5128917 5133639
5128917 5129867
5128917 5129877
5128917 5133688
5128917 5130982
5128917 5129562
5128917 5129491
5128917 5128039
5126734 5129877
5126734 5129034
5126734 5128994
5126734 5129043
5126734 5131656
5126734 5128983
5126734 5128039
5126734 5129626
5126734 5130689
5130518 5130496
5129877 5129867
5129877 5130982
5129877 5129562
5129877 5129491
5129877 5128039
5129877 5131090
5129877 5131633
5129877 5129626
5129877 5130689
5127338 5127251
5128401 5128508
5128401 5128520
5127136 5127684
5127917 5127882
5127917 5128039
5127917 5128644
5127917 5128623
5127917 5127877
5130730 5130741
5130730 5130689
5130741 5130689
5128508 5128520
5128644 5128623
5128039 5129867
5128039 5128539
5128039 5127882
5128039 5129236
5128039 5130982
5128039 5129562
5128039 5129491
5128039 5129626
5128039 5127877
5131633 5130982
5131633 5131090
5131633 5130689
5128192 5128189
5128192 5128110
5128189 5128110
5130924 5130982
5130924 5131090
5130924 5130689
5131656 5130982
5131656 5130689
5131137 5131143
5131137 5131140
5131143 5131140
5128539 5130982
5128539 5132707
5127082 5127200
5127882 5127877
5130982 5130689
5130982 5131090
5130982 5129626
5130982 5132707
5131090 5130689
5129034 5129089
5129034 5129611
5129034 5129745
5129034 5129081
5129034 5128994
5129034 5129396
5129034 5129546
5129034 5129094
5129034 5129043
5129034 5129562
5129034 5129491
5129034 5129626
5129034 5129387
5129034 5128983
5128994 5129089
5128994 5129745
5128994 5129043
5128994 5129396
5128994 5129387
5128994 5128983
5128994 5129094
5129043 5129089
5129043 5129611
5129043 5129745
5129043 5129081
5129043 5129396
5129043 5128983
5129043 5129094
5129043 5129626
5129626 5129611
5129626 5129745
5129626 5129396
5129089 5129094
5129089 5129745
5129089 5129081
5129089 5129396
5129094 5129081
5129094 5129396
5129094 5129387
5129745 5129611
5129745 5129396
5129396 5129611
5129396 5129491
5129396 5129387
5129867 5129562
5129867 5129491
5129562 5129546
5129562 5129491
5129491 5129546
5130605 5130635
5129217 5129236
5129217 5129171
5129217 5129199
5129171 5129236
5129171 5129199
5129236 5129199
