5119725 5120780
5119725 5120741
5119725 5119780
5119725 5119996
5119725 5120673
5119725 5119797
5119725 5123694
5119725 5119712
5119725 5120136
5119725 5119722
5119725 5120226
5119725 5119663
5119725 5119503
5119725 5119636
5119725 5119646
5119725 5122741
5119725 5120708
5119725 5119742
5120780 5120874
5120780 5119996
5120780 5120816
5120780 5119500
5120780 5120877
5120780 5119712
5120780 5119574
5120780 5121954
5120780 5119663
5120780 5120741
5120780 5119503
5120780 5120708
5120780 5120565
5120780 5119742
5120780 5121884
5120780 5124356
5120780 5120136
5120780 5120579
5120780 5120226
5120741 5120160
5120741 5119722
5120741 5119503
5120741 5119996
5120741 5121038
5120741 5120708
5120741 5120004
5120741 5119742
5120741 5119712
5120741 5120136
5120741 5120226
5120741 5119663
5119780 5119636
5119780 5119646
5119780 5119742
5119780 5119712
5119780 5119722
5119780 5119663
5119996 5119992
5119996 5120160
5119996 5121517
5119996 5120874
5119996 5119503
5119996 5120562
5119996 5120816
5119996 5119500
5119996 5122490
5119996 5121038
5119996 5124272
5119996 5121884
5119996 5119574
5119996 5121954
5119996 5119722
5119996 5124100
5119996 5120226
5119996 5119663
5119996 5122741
5119996 5122934
5119996 5120877
5119996 5120708
5119996 5121209
5119996 5120565
5119996 5120673
5119996 5120300
5119996 5120004
5119996 5119742
5119996 5119712
5119996 5124356
5119996 5120136
5119996 5120342
5119996 5120579
5120673 5120160
5120673 5121517
5120673 5120874
5120673 5119503
5120673 5122741
5120673 5120816
5120673 5122490
5120673 5121845
5120673 5121209
5120673 5120565
5120673 5123694
5120673 5119712
5120673 5119574
5120673 5119663
5120673 5120300
5120673 5120004
5120673 5119797
5120673 5119722
5120673 5120226
5119797 5123694
5119797 5119742
5119797 5119712
5119797 5119722
5119797 5119663
5119712 5120160
5119712 5121517
5119712 5120874
5119712 5119503
5119712 5119636
5119712 5119646
5119712 5122741
5119712 5120562
5119712 5120816
5119712 5122490
5119712 5122934
5119712 5120877
5119712 5121038
5119712 5121209
5119712 5120565
5119712 5120300
5119712 5120004
5119712 5119742
5119712 5119574
5119712 5120226
5119712 5119663
5119712 5120136
5119712 5120342
5119712 5120579
5119712 5119722
5120136 5120874
5120136 5119503
5120136 5120816
5120136 5120877
5120136 5120708
5120136 5121209
5120136 5119742
5120136 5119574
5120136 5124100
5120136 5120226
5120136 5119663
5119722 5120160
5119722 5121517
5119722 5120874
5119722 5119503
5119722 5119636
5119722 5119646
5119722 5122741
5119722 5120562
5119722 5122490
5119722 5122934
5119722 5121209
5119722 5120565
5119722 5120300
5119722 5120004
5119722 5119742
5119722 5119574
5119722 5120342
5119722 5120579
5119722 5120226
5119722 5119663
5120226 5120160
5120226 5120874
5120226 5119503
5120226 5120562
5120226 5120816
5120226 5121038
5120226 5120708
5120226 5121209
5120226 5120565
5120226 5120300
5120226 5120004
5120226 5119742
5120226 5119574
5120226 5120342
5120226 5120579
5120226 5119663
5119663 5120160
5119663 5121517
5119663 5120874
5119663 5119503
5119663 5119636
5119663 5119646
5119663 5122741
5119663 5120562
5119663 5120816
5119663 5119500
5119663 5122490
5119663 5122934
5119663 5120877
5119663 5121038
5119663 5121845
5119663 5120708
5119663 5121209
5119663 5120565
5119663 5120300
5119663 5120004
5119663 5124272
5119663 5119742
5119663 5121884
5119663 5124356
5119663 5125518
5119663 5119574
5119663 5121954
5119663 5120342
5119663 5120579
5119663 5124100
5119503 5120160
5119503 5121517
5119503 5120874
5119503 5119448
5119503 5120877
5119503 5119742
5119503 5119494
5119503 5120579
5119503 5120816
5119503 5119500
5119503 5121038
5119503 5120708
5119503 5121209
5119503 5120565
5119503 5120300
5119503 5120004
5119503 5121884
5119503 5119574
5119503 5121954
5119503 5119595
5119636 5119646
5119636 5119742
5119646 5119742
5122741 5120004
5120708 5120874
5120708 5120877
5120708 5119742
5119992 5120004
5120004 5120160
5120004 5120874
5120004 5120816
5120004 5121038
5120004 5121209
5120004 5120300
5120004 5119574
5120874 5120160
5120874 5121517
5120874 5120816
5120874 5120877
5120874 5121209
5120874 5120300
5120874 5119574
5120816 5120160
5120816 5120877
5120816 5121209
5120816 5119574
5120816 5120300
5119500 5119448
5119500 5119574
5119500 5121884
5119500 5119494
5119500 5124356
5119500 5121954
5120877 5119574
5119574 5120160
5119574 5121517
5119574 5119448
5119574 5121845
5119574 5121209
5119574 5120300
5119574 5121884
5119574 5119494
5119574 5119595
5121954 5121517
5121954 5121209
5121954 5121884
5121954 5124356
5120565 5120160
5120565 5121517
5120565 5120562
5120565 5122490
5120565 5122934
5120565 5121845
5120565 5121209
5120565 5124272
5120565 5124100
5120565 5121884
5120565 5120342
5120565 5120579
5121884 5121517
5121884 5121845
5121884 5121209
5121884 5124272
5121884 5120579
5121884 5124100
5121884 5124356
5121884 5125518
5120579 5120160
5120579 5121517
5120579 5120562
5120579 5122490
5120579 5122934
5120579 5121845
5120579 5121209
5120579 5124272
5120579 5125518
5120579 5120342
5120579 5124100
5120160 5121517
5120160 5120562
5120160 5122490
5120160 5122934
5120160 5121209
5120160 5121038
5120160 5120300
5120160 5120342
5121517 5122490
5121517 5121209
5121517 5119595
5121517 5122934
5120562 5120342
5122490 5122934
5122490 5121209
5122934 5119595
5122934 5121209
5121209 5120300
5121209 5119595
5119595 5119494
5119448 5119494
5119448 5119451
5119494 5119451
5124272 5124100
5121845 5125518
