4924370 4924375
4924370 4924380
4924370 4923666
4924370 4923212
4924375 4924380
4924375 4923212
4924375 4923666
4924380 4923212
4924380 4923666
4923666 4923685
4923666 4923212
4923212 4923736
4923212 4926642
4923212 4925306
4923212 4925376
4923212 4923123
4923212 4929102
4923212 4923240
4923212 4923432
4928044 4923123
4928044 4923388
4928044 4923240
4923123 4928888
4923123 4923919
4923123 4924915
4923123 4923388
4923123 4927465
4923123 4927490
4923123 4926726
4923123 4923240
4923123 4923432
4923388 4923240
4923240 4925898
4923240 4923736
4923240 4923919
4923240 4924915
4923240 4925808
4923240 4925805
4923240 4924113
4923240 4927465
4923240 4927490
4923240 4929102
4925898 4925808
4925808 4925805
4926642 4925306
4926642 4925376
4925306 4925376
4923919 4924915
4927465 4927490
4926726 4923758
4923758 4923750
