4800151 4800275
4800151 4800313
4800151 4800130
4800151 4800084
4800151 4800093
4800151 4800090
4800151 4800064
4800275 4800130
4800275 4801264
4800275 4801098
4800275 4800313
4800275 4800030
4800275 4800084
4800275 4801012
4800275 4803299
4800275 4800093
4800275 4800090
4800275 4802568
4800275 4800064
4800313 4800130
4800313 4800084
4800313 4800093
4800313 4800090
4800313 4800064
4800130 4800084
4800130 4800093
4800130 4800090
4800130 4800064
4800084 4803291
4800084 4801264
4800084 4801098
4800084 4802185
4800084 4803414
4800084 4800030
4800084 4801671
4800084 4803110
4800084 4802112
4800084 4802023
4800084 4805764
4800084 4801012
4800084 4800790
4800084 4800093
4800084 4800064
4800084 4802568
4800084 4800392
4800084 4802062
4800084 4800611
4800084 4803299
4800084 4803104
4800084 4804921
4800084 4804420
4800084 4800090
4800093 4801098
4800093 4800030
4800093 4801671
4800093 4801012
4800093 4803299
4800093 4802568
4800093 4800090
4800093 4800064
4800090 4800030
4800090 4800392
4800090 4800611
4800090 4804921
4800090 4800064
4800064 4801098
4800064 4801671
4803291 4800030
4803291 4803414
4803291 4803299
4800030 4801098
4800030 4802185
4800030 4802112
4800030 4800392
4800030 4802062
4800030 4800611
4800030 4800790
4800030 4803299
4800030 4804921
4800030 4804420
4803414 4803299
4803299 4806096
4803299 4801012
4801264 4801098
4801264 4801012
4801098 4801012
4801098 4800790
4801098 4802568
4801098 4801671
4801098 4800392
4801098 4805764
4801098 4800611
4801012 4802062
4802568 4802112
4802568 4804420
4800392 4800611
4800392 4804921
4802112 4802062
4802112 4802023
4802062 4802023
4803110 4803104
