4601519 4600120
4601519 4602176
4601519 4602153
4600120 4601682
4600120 4599578
4600120 4600522
4600120 4601654
4600120 4601659
4600120 4599983
4600120 4599962
4600120 4600124
4600120 4600909
4602176 4602153
4602153 4599857
4602153 4599417
4603543 4599857
4603543 4599731
4603543 4601082
4599857 4601154
4599857 4603146
4599857 4601682
4599857 4599731
4599857 4599417
4599857 4599400
4599857 4602482
4599857 4603119
4599857 4600522
4599857 4603059
4599857 4602010
4599857 4599894
4599857 4601082
4599857 4599949
4599857 4599983
4599731 4605433
4599731 4602906
4599731 4601173
4599731 4599578
4599731 4599417
4599731 4599894
4599731 4599403
4599731 4599400
4599731 4599949
4599731 4599983
4601082 4605433
4601082 4601154
4601082 4600525
4601082 4600522
4601082 4603059
4601082 4599417
4601082 4602997
4601082 4604011
4601082 4599949
4601154 4600522
4601154 4601964
4601154 4600525
4601154 4602997
4600522 4601921
4600522 4601173
4600522 4599578
4600522 4600124
4600522 4602970
4600522 4600525
4600522 4603059
4600522 4604117
4600522 4601915
4600522 4602010
4600522 4602997
4600522 4600909
4600522 4604011
4600522 4601964
4601964 4601921
4601964 4602970
4601964 4600525
4601964 4601915
4601964 4602010
4601964 4602997
4600525 4604599
4600525 4601921
4600525 4601173
4600525 4602970
4600525 4603059
4600525 4602997
4600525 4599949
4600525 4601915
4600525 4602010
4602997 4604599
4602997 4603059
4602997 4599949
4602997 4604117
4602997 4599983
4602997 4604011
4603146 4601682
4603146 4599949
4603146 4599983
4603146 4603119
4601682 4603119
4601682 4599983
4601682 4599578
4601682 4600124
4601682 4601654
4601682 4601659
4601682 4599949
4601682 4601812
4599949 4602906
4599949 4604599
4599949 4603119
4599949 4599578
4599949 4603059
4599949 4599417
4599949 4599894
4599949 4599403
4599949 4599400
4599949 4602482
4599949 4599962
4599949 4599983
4599949 4601812
4599983 4602906
4599983 4603119
4599983 4599578
4599983 4600124
4599983 4601654
4599983 4601659
4599983 4599417
4599983 4599894
4599983 4599403
4599983 4604011
4599983 4599400
4599983 4601812
4599983 4599962
4603119 4604445
4603119 4599417
4602906 4599894
4602906 4599403
4602906 4599400
4599894 4599417
4599894 4599403
4599894 4599400
4599403 4599417
4599403 4603870
4599403 4599400
4599400 4599417
4604599 4603059
4599417 4603291
4599417 4601173
4599417 4599578
4599417 4600124
4599417 4604445
4599417 4603311
4599417 4602482
4599417 4603324
4599417 4599962
4602010 4602970
4603291 4603311
4603291 4603324
4603311 4603324
4599578 4601654
4599578 4601659
4599578 4599962
4599578 4600124
4599578 4600909
4600124 4601654
4600124 4601659
4600124 4603870
4600124 4603866
4600124 4599962
4600124 4603766
4600124 4600909
4600124 4603781
4601654 4601659
4601812 4599962
4601921 4601915
4600909 4603866
4600909 4603870
4601173 4602970
4603870 4603766
4603870 4603866
4603870 4603781
4603866 4603766
4603866 4603781
4603766 4603781
