4514467 4514255
4514255 4517326
4514255 4517362
4514255 4517717
4514255 4514651
4514255 4514049
4514255 4518098
4514255 4514511
4514255 4515908
4514255 4514233
4514255 4514613
4514255 4514418
4514255 4514708
4514255 4518137
4514255 4518083
4514255 4519004
4514255 4514335
4514255 4517992
4514255 4515220
4514255 4519073
4514255 4519023
4514255 4515741
4514255 4518121
4514255 4515762
4514255 4519578
4514255 4514491
4514255 4518958
4514255 4516727
4514255 4517290
4514255 4516147
4514255 4514338
4514255 4514322
4514255 4514622
4514255 4514228
4514255 4515800
4517326 4517362
4517326 4514049
4517326 4517320
4517362 4517398
4517362 4517338
4517362 4517415
4517362 4519578
4517362 4517359
4517362 4514049
4517362 4517355
4514049 4517398
4514049 4517359
4514049 4517717
4514049 4517338
4514049 4514511
4514049 4517415
4514049 4517355
4514049 4515800
4517398 4517415
4517398 4517359
4517398 4517338
4517398 4517355
4517415 4517359
4517415 4517338
4517415 4517355
4517359 4517338
4517359 4517355
4517338 4517355
4517717 4519931
4517717 4514511
4517717 4514233
4517717 4516147
4519931 4516147
4519931 4514511
4514511 4514651
4514511 4514233
4514511 4515220
4514511 4516147
4514511 4515908
4514511 4514418
4514511 4514335
4514511 4519979
4514511 4514491
4514233 4514651
4514233 4514708
4514233 4514335
4514233 4517992
4514233 4515220
4514233 4516147
4514233 4514228
4514233 4514613
4514233 4514418
4514233 4514338
4514233 4514322
4514233 4514622
4514233 4515741
4516147 4519979
4514651 4518098
4514651 4514418
4514651 4518137
4514651 4514335
4514651 4515741
4514651 4518121
4514651 4514613
4514651 4514708
4514651 4518083
4514651 4514622
4514651 4514228
4518098 4518137
4518098 4514708
4518098 4518083
4518098 4518121
4514418 4515908
4514418 4514613
4514418 4514335
4514418 4514228
4514418 4514338
4514418 4514322
4514418 4514622
4518137 4514708
4518137 4518121
4514335 4514613
4514335 4514338
4514335 4514228
4514335 4514322
4514335 4514622
4518121 4514708
4514613 4514622
4514613 4514228
4514622 4514228
4514228 4514338
4514228 4514322
4515800 4515790
4515800 4515762
4515790 4515762
4514338 4514322
4519073 4519023
