4479097 4479196
4479097 4475413
4479097 4475350
4479196 4475413
4479196 4475350
4475413 4475724
4475413 4477942
4475413 4478738
4475413 4483669
4475413 4478250
4475413 4477067
4475413 4477330
4475413 4475406
4475413 4475627
4475413 4476380
4475413 4476045
4475413 4478404
4475413 4479988
4475413 4479365
4475413 4475542
4475413 4476516
4475413 4475350
4475413 4475791
4475413 4479387
4475413 4482961
4475413 4479306
4475413 4480523
4475350 4475724
4475350 4475984
4475350 4477942
4475350 4481153
4475350 4478738
4475350 4483669
4475350 4478250
4475350 4477330
4475350 4475791
4475350 4475406
4475350 4475627
4475350 4476380
4475350 4476045
4475350 4478404
4475350 4480523
4475350 4476516
4475724 4476848
4475724 4477330
4475724 4475791
4475724 4476761
4475724 4479387
4475724 4482961
4475724 4479365
4476848 4476761
4477330 4477551
4477330 4482961
4477330 4480523
4475791 4478250
4475791 4479387
4476761 4476772
4479387 4479306
4479387 4479365
4479365 4479306
4477942 4483669
4477942 4475406
4477942 4479988
4477942 4483702
4477942 4476380
4483669 4476380
4476380 4481153
4476380 4476516
4479306 4479823
