4266029 4264113
4264113 4266730
4264113 4263984
4264113 4266660
4264113 4263931
4264113 4268732
4264113 4263991
4264113 4264136
4264113 4263949
4264113 4266180
4264113 4266874
4266730 4266874
4266730 4263949
4266730 4263984
4266730 4266660
4266730 4263991
4266874 4263984
4266874 4266660
4266874 4268732
4266874 4263991
4266874 4263949
4263949 4263984
4263949 4266660
4263949 4264777
4263949 4267151
4263949 4263931
4263949 4264495
4263949 4268732
4263949 4263991
4263949 4264136
4263949 4267622
4263984 4263931
4263984 4268732
4263984 4264136
4263984 4266660
4263984 4263991
4266660 4263991
4263991 4269352
4263991 4269378
4263991 4264777
4263991 4267151
4263991 4263931
4263991 4264495
4263991 4268732
4263991 4264136
4263991 4267622
4263931 4264136
4269352 4269378
