4237698 4236224
4237698 4236161
4237698 4236065
4236224 4236344
4236224 4236724
4236224 4236820
4236224 4236805
4236224 4236794
4236224 4236798
4236224 4236240
4236224 4238205
4236224 4236161
4236224 4236676
4236224 4240462
4236224 4236065
4236224 4239688
4236161 4236344
4236161 4237505
4236161 4236724
4236161 4236820
4236161 4236805
4236161 4236794
4236161 4236798
4236161 4236240
4236161 4238205
4236161 4236065
4236161 4240462
4236161 4236099
4236161 4236090
4236161 4236676
4236161 4239688
4236065 4236344
4236065 4237505
4236065 4240139
4236065 4236724
4236065 4240495
4236065 4240802
4236065 4240823
4236065 4236820
4236065 4236196
4236065 4237561
4236065 4236805
4236065 4238815
4236065 4236794
4236065 4238039
4236065 4236798
4236065 4237165
4236065 4241554
4236065 4238989
4236065 4236169
4236065 4236240
4236065 4238205
4236065 4237004
4236065 4241936
4236065 4236099
4236065 4238993
4236065 4236999
4236065 4236676
4236065 4240462
4236065 4236427
4236065 4236657
4236065 4237045
4236065 4239222
4236065 4236090
4236065 4238061
4236065 4236681
4236065 4239688
4236344 4236196
4236344 4238039
4236344 4236798
4236344 4237165
4236344 4236240
4236344 4237004
4236344 4237045
4236344 4237505
4236344 4237561
4236344 4236805
4236344 4238815
4236344 4236794
4236344 4238989
4236344 4238205
4236344 4241936
4236344 4239222
4236344 4238061
4236196 4237165
4236196 4236240
4236798 4236724
4236798 4236820
4236798 4236805
4236798 4236794
4236798 4238205
4236798 4238989
4236798 4236240
4236798 4237045
4237165 4236240
4236240 4237505
4236240 4237561
4236240 4238815
4236240 4238989
4236240 4237045
4236240 4236427
4236240 4236657
4236240 4237004
4236240 4241936
4236240 4239222
4237004 4238989
4237004 4236999
4237004 4237045
4237004 4239222
4237045 4236820
4237045 4238989
4237045 4236999
4237045 4239222
4237505 4237561
4236805 4236820
4236805 4238205
4236805 4236794
4236794 4236820
4236794 4238205
4236794 4236676
4236794 4239688
4238989 4240139
4238989 4240495
4238989 4241554
4238989 4238205
4238989 4238993
4238205 4236820
4238205 4241554
4238205 4238993
4240139 4238993
4238993 4240495
4238993 4241554
4236724 4236676
4236676 4236820
4236676 4236681
4236676 4239688
4236676 4236427
4240802 4240823
4240802 4240462
4240802 4236657
4240823 4240462
4236657 4236427
4236820 4239688
4236099 4236090
