4230395 4229040
4229040 4231094
4229040 4232528
4229040 4229798
4229040 4229657
4229040 4229397
4229040 4230198
4229040 4229150
4229040 4229099
4229040 4228820
4229040 4229036
4229040 4230480
4229040 4235171
4229040 4232541
4229040 4230474
4229040 4231643
4229040 4231066
4229723 4230063
4229723 4230198
4229723 4229865
4229723 4229881
4229723 4228820
4229723 4229915
4229723 4229902
4230063 4230198
4230063 4230916
4230063 4229865
4230063 4230929
4230063 4229881
4230063 4228820
4230063 4229915
4230063 4229902
4230198 4229865
4230198 4228820
4230198 4230480
4229865 4229915
4229865 4229902
4229865 4229881
4229865 4228820
4229865 4232188
4229881 4232188
4229881 4229915
4229881 4235171
4229881 4229902
4229881 4228820
4228820 4228854
4228820 4232528
4228820 4228807
4228820 4229798
4228820 4229657
4228820 4229843
4228820 4234150
4228820 4232188
4228820 4230480
4228820 4232541
4228820 4229646
4228820 4229915
4228820 4229540
4228820 4229902
4228820 4230474
4228820 4228954
4229915 4229902
4231094 4231066
4231094 4230480
4231066 4230480
4230480 4232528
4230480 4229798
4230480 4229657
4230480 4231643
4230480 4231359
4230480 4232541
4230480 4230474
4230480 4231319
4232528 4229657
4232528 4229843
4232528 4232541
4232528 4229798
4229657 4229798
4229657 4232541
4229657 4229843
4229843 4229798
4229843 4232541
4232541 4229798
4229397 4230474
4230474 4235171
4230916 4230929
4229150 4229099
4229150 4229036
4229099 4229036
4229646 4229540
