4223404 4225241
4223404 4225981
4223404 4223187
4223404 4223445
4223404 4225815
4223404 4223442
4223404 4224744
4223404 4224986
4223404 4223193
4223404 4224374
4223404 4223955
4223404 4222900
4223404 4223452
4223404 4223492
4223404 4225041
4223404 4227097
4223404 4225523
4223404 4226681
4223404 4227074
4223404 4228703
4223404 4223356
4223404 4224216
4223404 4226672
4223404 4224716
4225241 4225398
4225241 4222900
4225241 4225815
4225241 4224374
4225241 4223955
4225241 4223356
4225981 4225041
4225981 4225523
4225981 4224986
4225981 4222900
4223187 4224744
4223187 4223193
4223187 4222900
4223187 4224716
4223187 4223492
4223187 4223442
4223187 4223181
4223187 4224986
4223187 4224374
4223187 4223452
4223445 4225815
4223445 4227074
4223445 4224986
4223445 4223452
4223445 4223492
4223445 4223442
4223445 4223193
4223445 4224374
4223445 4222900
4223445 4223886
4223445 4224716
4225815 4225041
4225815 4228344
4225815 4228703
4225815 4224986
4225815 4223955
4225815 4224216
4225815 4222900
4225815 4226160
4225815 4224716
4225815 4225213
4225815 4227074
4225815 4223193
4225815 4224374
4225815 4223356
4223442 4224744
4223442 4223955
4223442 4223356
4223442 4223452
4223442 4224716
4223442 4223492
4223442 4224374
4223442 4222900
4223442 4223886
4224744 4224716
4224744 4223492
4224744 4222900
4224744 4223452
4224986 4225041
4224986 4227097
4224986 4225523
4224986 4226681
4224986 4227074
4224986 4223356
4224986 4226672
4224986 4223193
4224986 4224374
4224986 4222900
4224986 4224716
4224986 4223492
4223193 4223304
4223193 4227074
4223193 4223181
4223193 4223356
4223193 4224716
4223193 4224374
4223193 4222900
4224374 4225398
4224374 4225041
4224374 4227074
4224374 4223955
4224374 4223452
4224374 4224716
4224374 4223492
4224374 4223356
4224374 4222900
4223955 4225041
4223955 4222900
4223955 4223492
4223955 4223356
4222900 4225398
4222900 4225041
4222900 4227097
4222900 4225523
4222900 4224264
4222900 4226681
4222900 4225213
4222900 4227074
4222900 4222887
4222900 4228703
4222900 4223356
4222900 4224216
4222900 4222889
4222900 4226672
4222900 4223452
4222900 4224355
4222900 4222956
4222900 4224716
4222900 4223492
4223452 4225523
4223452 4224716
4223452 4223492
4223492 4225041
4223492 4227282
4223492 4223356
4223492 4227292
4223492 4224716
4225041 4224716
4225041 4225523
4227097 4226681
4227097 4223356
4227097 4226672
4227097 4224716
4227097 4227074
4226681 4223356
4226681 4226672
4226681 4224716
4226681 4227074
4227074 4223356
4227074 4226672
4227074 4224716
4223356 4225398
4223356 4223304
4223356 4227282
4223356 4223181
4223356 4226672
4223356 4227292
4223356 4224716
4224216 4224264
4224216 4224355
4224216 4226160
4226672 4224716
4224716 4227282
4224716 4227292
4223304 4223181
4227282 4227292
4224264 4224355
4222887 4222889
4222887 4222956
4222889 4222956
