4118928 4118589
4118928 4118509
4118928 4118756
4118589 4119145
4118589 4120579
4118589 4121432
4118589 4119388
4118589 4119442
4118589 4122463
4118589 4118756
4118589 4119392
4118589 4119044
4118589 4121394
4118589 4118509
4118589 4120531
4118509 4119145
4118509 4123336
4118509 4119388
4118509 4119442
4118509 4118756
4118509 4118478
4118509 4119392
4118509 4118487
4118509 4120272
4118756 4119145
4118756 4119388
4118756 4119442
4118756 4120272
4118756 4122025
4119145 4121432
4119145 4122463
4119145 4122495
4119145 4119044
4119145 4122609
4119145 4120531
4119145 4120579
4119145 4119388
4119145 4119442
4119145 4119392
4121432 4120579
4121432 4122495
4121432 4121394
4119044 4119388
4119044 4119392
4122609 4120579
4122609 4123030
4122609 4124251
4120531 4120579
4119388 4119392
4119388 4119442
4119388 4120272
4119442 4119392
4119442 4122025
4118478 4118487
4123030 4124251
