3964846 3959911
3964846 3958589
3959911 3960164
3959911 3960245
3959911 3961115
3959911 3958791
3959911 3960149
3959911 3958589
3958589 3958497
3958589 3960164
3958589 3963872
3958589 3960634
3958589 3959068
3958589 3958801
3958589 3962055
3958589 3958659
3958589 3961718
3958589 3960245
3958589 3959170
3958589 3958701
3958589 3964884
3958589 3959848
3958589 3959063
3958589 3961115
3958589 3958791
3958589 3958480
3958589 3964458
3958589 3959550
3958589 3958904
3958589 3960149
3958589 3964596
3958589 3960522
3958589 3960647
3958589 3960631
3958589 3959693
3958497 3958480
3960164 3963872
3960164 3961115
3960164 3958791
3960164 3960149
3960164 3964596
3960164 3960634
3960164 3960245
3960164 3964458
3960164 3960647
3960164 3960631
3963872 3960149
3963872 3960245
3961115 3960245
3961115 3960149
3958791 3960634
3958791 3959068
3958791 3958801
3958791 3962055
3958791 3961718
3958791 3959170
3958791 3958701
3958791 3959848
3958791 3959063
3958791 3958945
3958791 3964458
3958791 3959550
3958791 3960149
3958791 3960647
3958791 3960631
3958791 3958904
3960149 3960245
3960149 3964458
3960149 3964596
3964596 3964458
3960634 3960647
3960634 3960631
3960647 3960631
3959068 3958701
3959068 3959063
3958701 3962055
3958701 3959063
3958945 3958904
3958904 3959693
