3915621 3912133
3915621 3912697
3915621 3915871
3915621 3912127
3915621 3912323
3912133 3914305
3912133 3915871
3912133 3912127
3912133 3912141
3912133 3912188
3912133 3912697
3912133 3913893
3912133 3914186
3912133 3912323
3912697 3914305
3912697 3913673
3912697 3915871
3912697 3912127
3912697 3913022
3912697 3912692
3912697 3914191
3912697 3917878
3912697 3912818
3912697 3912758
3912697 3913893
3912697 3913745
3912697 3915016
3912697 3915076
3912697 3912420
3912697 3914186
3912697 3912323
3912697 3912780
3912697 3912141
3915871 3912127
3915871 3912323
3912127 3914305
3912127 3914272
3912127 3912509
3912127 3917878
3912127 3912758
3912127 3912188
3912127 3914186
3912127 3913904
3912127 3915971
3912127 3914191
3912127 3912780
3912127 3912141
3912127 3913893
3912127 3912420
3912127 3912323
3912323 3914305
3912323 3913673
3912323 3913022
3912323 3912780
3912323 3912758
3912323 3912141
3912323 3913893
3912323 3912188
3912323 3912420
3912323 3914186
3914305 3915971
3914305 3914191
3914305 3913893
3914305 3914186
3914305 3914272
3915971 3914186
3915971 3914191
3915971 3913893
3914191 3914186
3914191 3913893
3914191 3913745
3913893 3914272
3913893 3914186
3914186 3913745
3913673 3912141
3912141 3913022
3912141 3917878
3912141 3912780
3912141 3912758
3912141 3915016
3912141 3915076
3912141 3912188
3912141 3912420
3912509 3912420
3912420 3913022
3912420 3912780
3912420 3912758
3912758 3913022
3912758 3912818
3912758 3912780
3912780 3913022
3912780 3912818
3913022 3915076
