3833919 3833910
3833919 3835061
3833919 3833001
3833919 3833900
3833919 3837407
3833910 3837407
3833910 3833900
3833001 3832871
3833001 3832623
3833001 3832946
3833001 3838594
3833001 3832620
3833900 3835020
3837407 3832623
3837407 3837402
3837407 3832620
3834268 3834276
3834268 3835020
3834268 3836291
3832871 3832623
3832871 3832620
3832871 3835864
3832871 3832908
3832871 3834051
3832871 3832946
3832871 3832773
3832623 3833162
3832623 3832908
3832623 3835262
3832623 3834051
3832623 3832662
3832623 3834783
3832623 3836958
3832623 3833196
3832623 3839257
3832623 3837065
3832623 3834124
3832623 3836154
3832623 3832620
3832623 3832725
3832623 3835864
3832623 3838337
3832623 3838291
3832623 3832946
3832623 3832773
3832620 3833162
3832620 3832908
3832620 3833616
3832620 3833714
3832620 3834051
3832620 3832662
3832620 3834783
3832620 3836958
3832620 3833196
3832620 3839257
3832620 3834529
3832620 3837065
3832620 3838337
3832620 3838791
3832620 3838291
3832620 3839240
3832620 3836154
3832620 3832725
3832620 3835864
3832620 3834661
3832620 3832946
3832620 3832773
3835864 3838069
3832908 3833166
3832908 3833162
3832908 3834051
3832908 3833196
3832908 3832946
3832908 3832773
3834051 3839335
3834051 3832946
3832946 3833166
3832946 3833162
3832946 3836958
3832946 3833196
3832946 3837065
3832946 3839240
3832946 3832773
3833166 3833162
3833166 3834748
3833166 3833175
3833166 3833196
3833166 3833662
3833162 3833175
3833162 3833196
3833162 3834748
3833162 3835198
3834748 3833196
3833175 3833196
3833175 3837304
3833196 3833616
3833196 3834783
3833196 3838337
3833196 3837304
3833196 3833811
3833196 3837739
3833196 3838291
3833196 3833792
3836151 3836154
3836154 3836232
3836154 3834783
3836154 3839090
3835262 3837882
3832662 3832725
3836958 3837065
3839257 3839240
3838337 3838291
3833811 3833792
