3828240 3827741
3828240 3828162
3828240 3825046
3828240 3825002
3828240 3827851
3828240 3828156
3827741 3828766
3827741 3828319
3827741 3828162
3827741 3828620
3827741 3826972
3827741 3828156
3827741 3825046
3827741 3829121
3827741 3828741
3827741 3825002
3827741 3828803
3827741 3827851
3827741 3826526
3828162 3825046
3828162 3825002
3828162 3827851
3828162 3828156
3825046 3828766
3825046 3825320
3825046 3828319
3825046 3825123
3825046 3825002
3825046 3825026
3825046 3826972
3825046 3828803
3825046 3827851
3825046 3827330
3825046 3825170
3825046 3828741
3825046 3825538
3825046 3827442
3825046 3826580
3825046 3826573
3825046 3825034
3825046 3828156
3825046 3826526
3825046 3825055
3825046 3828014
3825046 3825116
3825002 3828766
3825002 3827713
3825002 3825320
3825002 3826410
3825002 3827921
3825002 3828319
3825002 3828741
3825002 3825858
3825002 3831779
3825002 3825882
3825002 3831787
3825002 3825538
3825002 3827442
3825002 3828524
3825002 3825123
3825002 3825026
3825002 3831783
3825002 3826972
3825002 3828803
3825002 3826433
3825002 3827330
3825002 3826526
3825002 3826580
3825002 3826573
3825002 3827851
3825002 3825571
3825002 3831642
3825002 3825034
3825002 3828156
3825002 3825513
3825002 3825505
3825002 3825170
3825002 3825055
3825002 3831673
3825002 3828014
3825002 3825116
3827851 3828319
3827851 3828156
3831922 3827921
3831922 3828524
3831922 3828014
3827921 3828566
3827921 3828319
3827921 3827929
3827921 3828662
3827921 3827996
3827921 3828547
3827921 3828524
3827921 3828651
3827921 3826526
3827921 3828014
3828524 3828566
3828524 3828662
3828524 3826526
3828524 3828547
3828524 3828014
3828524 3828651
3828014 3830909
3828014 3829121
3828014 3826580
3828014 3826526
3828766 3828803
3828766 3828741
3828766 3826972
3828803 3828741
3830909 3826526
3830909 3826580
3826526 3826410
3826526 3829121
3826526 3827929
3826526 3825123
3826526 3828662
3826526 3828651
3826526 3825026
3826526 3827996
3826526 3826580
3826526 3826573
3826526 3825055
3826580 3825123
3826580 3825026
3826580 3825055
3826580 3826573
3828319 3828620
3825320 3827330
3825320 3825026
3825320 3825170
3825320 3825055
3827330 3825123
3827330 3825116
3825026 3826410
3825026 3825123
3825026 3825170
3825026 3825116
3825026 3826573
3825026 3825034
3825026 3826433
3825026 3825055
3825170 3825123
3825170 3825034
3825170 3825116
3825055 3826410
3825055 3825123
3825055 3826573
3825055 3825034
3825055 3826433
3825055 3825116
3828566 3828547
3826410 3826433
3827929 3827996
3828662 3828651
3825123 3825034
3825123 3825116
3825123 3826573
3825538 3825858
3825538 3825882
3825538 3827442
3825538 3825571
3825538 3825513
3825538 3825505
3825034 3825116
3825858 3825882
3825858 3825571
3825858 3825513
3825858 3825505
3825882 3825571
3825882 3825513
3825882 3825505
3825571 3825513
3825571 3825505
3825513 3825505
3831779 3831787
3831779 3831783
3831779 3831673
3831787 3831783
3831787 3831673
3831783 3831673
3831673 3831642
