3709141 3704312
3704312 3706554
3704312 3704231
3704312 3704316
3704312 3704263
3704312 3707945
3704312 3706995
3704312 3705594
3705431 3704316
3704316 3708360
3704316 3708353
3704316 3708348
3704316 3708176
3704316 3708923
3704316 3706671
3704316 3704263
3704316 3704231
3704316 3705863
3704316 3705115
3704316 3707945
3704316 3706995
3704316 3705594
3704208 3704231
3704231 3708360
3704231 3708353
3704231 3708348
3704231 3708176
3704231 3708923
3704231 3705305
3704231 3704382
3704231 3704263
3704231 3704691
3704231 3706995
3708360 3708353
3708360 3708348
3708353 3708348
3704263 3705765
3704263 3706995
