3668424 3668464
3668464 3662477
3668464 3662447
3668464 3666368
3668291 3662076
3662076 3665940
3662076 3667644
3662076 3663462
3662076 3666028
3662076 3662447
3662076 3663234
3662076 3663871
3662076 3663192
3662076 3665578
3662076 3662035
3662076 3664041
3662076 3666438
3662076 3667715
3662076 3664320
3662076 3664851
3662076 3664218
3662076 3666997
3662076 3662246
3662076 3663408
3662076 3662031
3662076 3662514
3662076 3662919
3662076 3667029
3662076 3662863
3662076 3665955
3662076 3666368
3662076 3664924
3662076 3662095
3662076 3664453
3662076 3664158
3662076 3662907
3662076 3664622
3662076 3664757
3662076 3663866
3662477 3665094
3662477 3666438
3662477 3664320
3662477 3662031
3662477 3662447
3662477 3662035
3662477 3666368
3662477 3666378
3662447 3665094
3662447 3666378
3662447 3662035
3662447 3666368
3666368 3665094
3666368 3662035
3666368 3666438
3666368 3664320
3666368 3666378
3665940 3665955
3665940 3666028
3665955 3666028
3665094 3662035
3665094 3666378
3662035 3662095
3662035 3666378
3662035 3662031
3667644 3667715
3667644 3662031
3667715 3662031
3662031 3666997
3662031 3662246
3662031 3662095
3662031 3662514
3662031 3664622
3662031 3667029
3666438 3664320
3666438 3662514
3664320 3662514
3663234 3663192
3663192 3666997
3663871 3662514
3663871 3666847
3663871 3663866
3662514 3663866
3662514 3662907
3666997 3667029
3662095 3665065
3662095 3664453
3664218 3664158
