3625843 3625869
3625843 3625846
3625843 3624487
3625869 3625846
3625869 3625923
3625869 3624487
3625846 3625923
3625846 3624487
3624487 3625428
3624487 3626099
3624487 3625472
3624487 3626366
3624487 3625310
3624487 3624697
3624487 3626161
3624487 3629666
3624487 3626315
3624487 3625504
3624487 3625475
3624487 3626085
3624487 3625400
3624487 3623790
3624487 3625581
3624487 3624082
3624487 3623754
3624487 3625495
3624487 3625923
3624487 3625615
3624487 3625499
3624487 3626393
3624487 3624889
3624487 3625540
3624487 3624041
3624487 3624895
3624487 3625612
3624487 3625478
3624487 3626240
3624487 3624404
3629492 3629518
3629492 3624404
3629518 3624404
3624404 3629227
3624404 3624697
3624404 3629666
3624404 3629208
3624404 3623790
3624404 3624082
3624404 3623754
3624404 3629173
3624404 3624889
3624404 3624041
3624404 3624895
3624404 3629187
3624404 3629272
3629227 3629272
3629227 3629208
3629227 3629173
3629227 3629187
3629272 3629282
3629272 3629208
3629272 3629173
3629272 3629187
3629208 3629173
3629208 3629187
3629173 3629187
3627970 3624041
3624041 3624030
3624041 3624697
3624041 3623790
3624041 3624082
3624041 3623754
3624041 3624889
3624041 3624895
3624041 3628107
3625428 3626987
3625428 3626526
3625428 3625400
3625428 3623790
3625428 3623754
3626987 3623754
3626987 3626526
3626987 3625400
3626987 3623790
3626526 3623790
3626526 3625400
3626526 3623754
3625400 3623790
3625400 3623754
3623790 3626366
3623790 3629666
3623790 3626315
3623790 3623757
3623790 3624082
3623790 3623754
3623790 3626393
3623790 3624889
3623790 3624895
3623790 3623864
3623790 3623860
3623754 3626366
3623754 3624697
3623754 3629666
3623754 3626315
3623754 3623757
3623754 3626393
3623754 3624895
3623754 3623864
3623754 3624889
3623754 3623860
3625472 3625504
3625472 3625475
3625472 3625581
3625472 3625495
3625472 3625499
3625472 3625540
3625472 3625478
3625504 3625581
3625504 3625540
3625504 3625475
3625504 3625495
3625504 3625499
3625504 3625478
3625475 3625581
3625475 3625495
3625475 3625499
3625475 3625540
3625475 3625478
3625581 3625495
3625581 3625499
3625581 3625540
3625581 3625478
3625495 3625499
3625495 3625540
3625495 3625478
3625499 3625540
3625499 3625478
3625540 3625478
3626366 3626393
3626366 3626315
3626393 3626315
3624697 3624895
3624895 3624889
3629666 3624889
3623757 3623864
3623757 3623860
3623864 3623860
3625615 3625612
