3588974 3586918
3588974 3586996
3588974 3586610
3588974 3587590
3588974 3586871
3588974 3587597
3588974 3586342
3588974 3590800
3586918 3586610
3586918 3586871
3586918 3587536
3586918 3587590
3586918 3587436
3586918 3586342
3586918 3586996
3586918 3590800
3586918 3587219
3586996 3586610
3586996 3587644
3586996 3587590
3586996 3586871
3586996 3587990
3586996 3587597
3586996 3587536
3586996 3586342
3586996 3591285
3586996 3589632
3586996 3590615
3586996 3587219
3586996 3590800
3586996 3590062
3586610 3587644
3586610 3587590
3586610 3586871
3586610 3587597
3586610 3586342
3586610 3591285
3586610 3590800
3586610 3587219
3586610 3590062
3587590 3587644
3587590 3590800
3587590 3588604
3587590 3586871
3587590 3587597
3587590 3587219
3586871 3587644
3586871 3589991
3586871 3587436
3586871 3587597
3586871 3590800
3586871 3587990
3586871 3587536
3586871 3586342
3586871 3591285
3586871 3589632
3586871 3587219
3586871 3590062
3587597 3587644
3587597 3588604
3587597 3586342
3587597 3589632
3587597 3587219
3586342 3586549
3586342 3587644
3586342 3586574
3586342 3589632
3586342 3590800
3587644 3589632
3587644 3587219
3587644 3590062
3591285 3590062
3587219 3587436
3587219 3587536
3586549 3586574
3587536 3587990
3587536 3587436
