3509365 3508925
3509365 3506737
3509365 3509324
3508925 3506587
3508925 3506570
3508925 3506737
3508925 3509324
3506737 3506587
3506737 3506570
3506737 3507911
3506737 3506678
3506737 3509041
3506737 3509324
3506737 3508633
3506737 3506693
3506737 3509697
3506423 3506587
3506423 3506570
3506423 3506452
3506423 3506427
3506587 3510286
3506587 3506570
3506587 3509041
3506587 3510150
3506587 3506693
3506587 3510355
3506587 3510298
3506587 3506452
3506587 3506427
3506587 3509028
3506587 3506843
3506570 3510286
3506570 3509406
3506570 3507227
3506570 3506452
3506570 3508575
3506570 3510150
3506570 3510355
3506570 3510298
3506570 3506843
3506570 3507911
3506570 3507261
3506570 3509416
3506570 3506427
3506570 3509028
3506570 3509041
3506570 3508633
3506570 3506693
3506570 3506996
3506570 3509697
3506452 3507261
3506452 3507227
3506452 3506427
3506452 3506693
3506452 3506843
3506452 3506996
3510286 3510355
3510286 3510298
3510286 3509028
3510286 3509041
3510286 3510150
3510355 3509028
3510355 3509041
3510355 3510150
3510355 3510298
3510298 3509028
3510298 3509041
3510298 3510150
3509028 3507261
3509028 3509041
3509028 3510150
3509041 3507261
3509041 3508633
3509041 3510150
3506693 3506678
3506693 3507227
3506693 3508575
3506693 3508633
3506693 3506996
3506693 3506843
3506843 3507119
3506843 3507261
3506843 3506996
3507119 3506996
3509406 3509416
3508575 3508633
