3436663 3436669
3436663 3440689
3436663 3440313
3436663 3436023
3436663 3436694
3436663 3436659
3436663 3436179
3436663 3435934
3436669 3436694
3436669 3436659
3440689 3440313
3440313 3437384
3436023 3436130
3436023 3435931
3436023 3436274
3436023 3435934
3436023 3436254
3436023 3436179
3436694 3436659
3436179 3436130
3436179 3435931
3436179 3437928
3436179 3437262
3436179 3437384
3436179 3436274
3436179 3436631
3436179 3435934
3436179 3436254
3435934 3437267
3435934 3436130
3435934 3436895
3435934 3435931
3435934 3437865
3435934 3436406
3435934 3436089
3435934 3436457
3435934 3437928
3435934 3437262
3435934 3437384
3435934 3436389
3435934 3438132
3435934 3435927
3435934 3436083
3435934 3436274
3435934 3436631
3435934 3436254
3437267 3437262
3437262 3435931
3436130 3436274
3436130 3436254
3436130 3435931
3436274 3435931
3436274 3436406
3436274 3436457
3436274 3436389
3436274 3436254
3436254 3435931
3436254 3437928
3436254 3437384
3436254 3436631
3435931 3436895
3435931 3436406
3435931 3436089
3435931 3437928
3435931 3436389
3435931 3435927
3435931 3441540
3435931 3436631
3435931 3437865
3435931 3436457
3435931 3437384
3435931 3436083
3436895 3436457
3436457 3436406
3436457 3436389
3436406 3436389
3436089 3436083
3437928 3438132
3437928 3436631
3437928 3437384
3436631 3437384
3437384 3438132
