3376199 3376238
3376199 3376265
3376199 3375130
3376238 3377159
3376238 3375721
3376238 3376478
3376238 3376853
3376238 3375419
3376238 3377146
3376238 3376265
3376238 3377033
3376238 3377093
3376238 3375130
3376265 3375130
3375130 3377159
3375130 3376121
3375130 3379988
3375130 3377556
3375130 3375784
3375130 3375721
3375130 3380215
3375130 3380236
3375130 3376478
3375130 3375189
3375130 3376853
3375130 3376801
3375130 3378870
3375130 3379390
3375130 3378937
3375130 3375419
3375130 3377146
3375130 3375276
3375130 3377033
3375130 3379647
3375130 3380166
3375130 3375425
3375130 3377093
3375130 3380476
3375130 3378409
3375130 3375580
3375130 3375585
3375130 3379637
3375130 3380035
3375130 3375250
3375130 3379012
3375130 3379628
3375130 3377372
3375130 3377440
3375130 3375294
3375130 3380921
3375130 3375416
3375130 3379795
3375130 3377564
3375130 3375659
3375130 3380231
3375130 3380143
3375130 3375831
3375130 3375790
3375130 3380004
3375130 3375650
3375130 3379387
3375130 3378352
3375130 3378749
3377159 3375419
3377159 3375721
3377159 3376478
3377159 3376853
3377159 3377146
3377159 3377033
3377159 3377093
3375419 3375721
3375419 3376478
3375419 3376853
3375419 3377146
3375419 3375276
3375419 3377033
3375419 3375425
3375419 3377093
3375419 3375250
3375419 3375294
3375419 3381187
3375419 3378557
3375419 3375416
3375721 3379988
3375721 3375784
3375721 3380215
3375721 3380236
3375721 3376478
3375721 3375189
3375721 3377146
3375721 3377033
3375721 3379647
3375721 3380166
3375721 3377093
3375721 3380476
3375721 3379637
3375721 3380035
3375721 3375831
3375721 3380004
3375721 3379012
3375721 3379628
3375721 3377372
3375721 3379795
3375721 3380231
3375721 3380143
3375721 3378749
3375721 3376853
3375721 3376801
3375721 3378870
3375721 3379390
3375721 3375425
3375721 3375580
3375721 3375790
3375721 3375650
3375721 3379387
3375721 3375659
3376478 3379988
3376478 3380215
3376478 3380236
3376478 3376801
3376478 3381414
3376478 3377146
3376478 3377033
3376478 3381258
3376478 3381422
3376478 3375425
3376478 3377093
3376478 3380476
3376478 3381472
3376478 3375831
3376478 3378557
3376478 3380921
3376478 3379795
3376478 3376853
3376478 3379647
3376478 3380166
3376478 3375580
3376478 3380035
3376478 3381312
3376478 3380004
3376478 3379012
3376478 3377372
3376478 3380231
3376478 3380143
3376853 3378870
3376853 3379390
3376853 3377146
3376853 3377033
3376853 3379647
3376853 3375425
3376853 3379196
3376853 3377093
3376853 3379637
3376853 3379628
3376853 3381187
3376853 3378557
3376853 3379795
3376853 3378749
3376853 3376801
3377146 3377033
3377146 3377093
3377033 3377093
3377033 3381258
3377033 3380476
3376121 3375831
3376121 3375790
3376121 3377372
3375831 3379988
3375831 3377556
3375831 3375784
3375831 3380215
3375831 3380236
3375831 3381414
3375831 3381422
3375831 3379647
3375831 3380166
3375831 3375425
3375831 3380476
3375831 3375585
3375831 3380035
3375831 3381472
3375831 3379012
3375831 3377372
3375831 3377564
3375831 3380231
3375831 3380143
3375831 3375790
3375831 3380004
3375831 3375650
3375831 3377440
3375831 3379795
3375831 3375659
3375831 3378105
3375790 3375784
3375790 3375189
3375790 3375425
3375790 3375650
3375790 3375659
3377372 3379988
3377372 3380215
3377372 3380236
3377372 3379647
3377372 3380166
3377372 3380476
3377372 3380035
3377372 3380004
3377372 3379012
3377372 3380231
3377372 3380143
3377372 3378105
3379988 3380215
3379988 3380236
3379988 3379647
3379988 3380166
3379988 3380476
3379988 3380035
3379988 3380004
3379988 3379012
3379988 3380231
3379988 3380143
3380215 3380236
3380215 3380476
3380215 3380231
3380215 3379647
3380215 3380166
3380215 3380035
3380215 3380004
3380215 3379012
3380215 3380143
3380236 3380476
3380236 3379647
3380236 3380166
3380236 3380035
3380236 3380004
3380236 3379012
3380236 3380231
3380236 3380143
3379647 3378870
3379647 3379390
3379647 3375425
3379647 3380476
3379647 3379795
3379647 3380231
3379647 3380166
3379647 3379637
3379647 3380035
3379647 3380004
3379647 3379012
3379647 3379628
3379647 3380143
3380166 3380476
3380166 3380231
3380166 3380035
3380166 3380004
3380166 3379012
3380166 3380143
3380476 3381258
3380476 3375425
3380476 3380921
3380476 3380035
3380476 3380004
3380476 3379012
3380476 3380231
3380476 3380143
3380035 3379012
3380035 3380231
3380035 3380143
3380035 3380004
3380004 3379012
3380004 3380231
3380004 3380143
3379012 3380231
3379012 3380143
3380231 3380143
3377556 3377564
3375784 3375189
3375784 3375425
3375784 3375650
3375784 3375659
3375189 3375425
3375425 3378870
3375425 3379390
3375425 3381414
3375425 3375276
3375425 3381422
3375425 3381472
3375425 3381187
3375425 3378557
3375425 3379795
3375425 3375580
3375425 3379637
3375425 3375250
3375425 3375650
3375425 3379628
3375425 3375294
3375425 3375416
3375425 3375659
3375650 3375659
3375650 3378749
3379637 3378870
3379637 3379390
3379637 3379795
3379637 3379628
3379628 3378870
3379628 3379390
3379628 3379795
3379795 3378870
3379795 3379390
3379795 3381414
3379795 3381422
3379795 3381472
3378749 3379196
3378870 3379387
3378870 3379390
3379390 3379387
3375580 3378409
3375580 3375585
3375580 3378352
3381414 3381422
3381414 3381472
3381422 3381472
3378557 3379196
3378557 3381187
3375276 3375294
3375276 3375416
3375276 3375250
3375250 3375294
3375250 3375416
3375294 3375416
3378409 3378352
3375585 3377440
