10 9 23
9 10 19
16 21 12
21 16 11
10 23 10
23 10 10
15 9 9
9 15 8
10 26 8
23 9 8
9 25 7
25 9 7
26 10 7
9 23 7
4 5 6
5 4 6
11 10 6
15 10 6
3 9 5
10 15 5
25 31 5
28 23 5
5 6 4
6 5 4
9 11 4
9 3 4
31 25 4
27 28 4
23 28 4
16 17 3
17 16 3
21 23 3
10 11 3
2 3 2
3 2 2
15 16 2
10 22 2
22 10 2
10 24 2
24 10 2
23 15 2
11 27 2
9 29 2
29 9 2
33 27 2
23 21 2
9 27 2
1 2 1
3 4 1
4 2 1
2 4 1
4 3 1
3 5 1
6 3 1
3 7 1
7 3 1
2 6 1
5 8 1
8 9 1
10 6 1
6 11 1
11 12 1
12 11 1
10 13 1
13 10 1
9 13 1
13 9 1
10 3 1
11 14 1
14 10 1
16 15 1
17 15 1
9 18 1
18 13 1
13 16 1
16 13 1
13 19 1
19 17 1
17 20 1
20 17 1
21 10 1
9 21 1
16 10 1
26 19 1
19 11 1
27 16 1
16 9 1
9 19 1
19 26 1
26 11 1
11 26 1
26 28 1
28 9 1
9 30 1
30 23 1
23 17 1
17 25 1
31 9 1
9 32 1
32 10 1
10 33 1
27 33 1
28 16 1
11 9 1
9 28 1
28 11 1
28 24 1
24 27 1
27 23 1
28 27 1
27 34 1
