3280367 3280410
3280367 3278708
3280367 3275329
3280410 3275329
3280410 3278708
3278708 3278773
3278708 3278778
3278708 3275062
3278708 3281661
3278708 3279103
3278708 3279112
3278708 3275329
3278708 3281592
3278708 3278703
3278708 3281252
3278708 3281174
3275329 3278773
3275329 3278778
3275329 3275062
3275329 3275490
3275329 3278703
3278542 3278703
3278703 3275062
3278703 3275490
3278703 3281174
3278773 3278778
3275062 3280024
3275062 3275112
3275062 3277096
3275062 3278493
3275062 3280690
3275062 3281252
3275062 3279434
3275062 3281592
3275062 3276621
3275062 3275088
3275062 3276220
3275062 3276284
3275062 3278597
3275062 3281818
3275062 3275259
3275062 3281661
3275062 3279103
3275062 3276863
3275062 3280180
3275062 3279948
3275062 3275080
3275062 3279686
3275062 3279112
3275062 3275490
3275112 3276863
3275112 3275080
3275112 3275490
3275112 3275088
3278493 3275490
3279434 3275490
3281592 3281661
3276621 3275490
3275088 3275080
3275088 3278654
3275088 3278582
3275088 3275490
3275088 3278597
3276220 3275490
3278597 3275080
3278597 3278654
3278597 3278582
3281818 3281661
3279103 3279112
3276863 3275080
3275080 3278654
3275080 3278582
3278654 3278582
