3269632 3273009
3269632 3272129
3269632 3269123
3269632 3269130
3269632 3269242
3269632 3271609
3272129 3268930
3272129 3269052
3272129 3269123
3272129 3271236
3272129 3270538
3272129 3274829
3272129 3269656
3272129 3269130
3272129 3269242
3272129 3268883
3272129 3273330
3269123 3268930
3269123 3269104
3269123 3269108
3269123 3269130
3269123 3269242
3269130 3268930
3269130 3269451
3269130 3269052
3269130 3274180
3269130 3269261
3269130 3269267
3269130 3274185
3269130 3274829
3269130 3269108
3269130 3269656
3269130 3269242
3269130 3271609
3269130 3269104
3269130 3269331
3269130 3269477
3269130 3268883
3269130 3269049
3269130 3273330
3269130 3270081
3269242 3269451
3269242 3269052
3269242 3269261
3269242 3269267
3269242 3270341
3269242 3269656
3269242 3269049
3269242 3269331
3269242 3269477
3268930 3271236
3268930 3274829
3268930 3269656
3268930 3272827
3268930 3268883
3268930 3272515
3268930 3273330
3268930 3269052
3268930 3269108
3268930 3272899
3268930 3269104
3268930 3272893
3268930 3272755
3271236 3271228
3274829 3269052
3274829 3269656
3274829 3268883
3269656 3269052
3269656 3274180
3269656 3274185
3269656 3269964
3269656 3269995
3269656 3269922
3269656 3268883
3272827 3268883
3268883 3269052
3268883 3272755
3268883 3272515
3268883 3273330
3272515 3269052
3273330 3269052
3269052 3271539
3269052 3269049
3269052 3269477
3269052 3270538
3269108 3269104
3272899 3272893
3269451 3269477
3269451 3269261
3269451 3269267
3269451 3269049
3269451 3269331
3269477 3269261
3269477 3269267
3269477 3269049
3269477 3269331
3269261 3269267
3269261 3269331
3269261 3269049
3269267 3269331
3269267 3269049
3269049 3269331
3270538 3270549
3274180 3274185
3269964 3269995
3269964 3269922
3269995 3269922
