3193900 3193026
3193900 3192827
3193900 3192848
3193900 3192920
3193900 3193513
3193900 3192818
3193900 3198008
3193900 3193090
3193900 3193852
3193900 3194845
3193026 3192920
3193026 3193090
3193026 3193011
3193026 3192818
3193026 3192827
3193026 3192848
3193026 3193232
3192827 3194909
3192827 3193387
3192827 3192920
3192827 3193513
3192827 3192818
3192827 3198008
3192827 3192790
3192827 3193090
3192827 3193459
3192827 3195006
3192827 3195038
3192827 3193852
3192827 3192848
3192827 3194845
3192827 3192767
3192827 3193551
3192848 3194909
3192848 3193387
3192848 3192920
3192848 3193513
3192848 3192818
3192848 3192790
3192848 3193090
3192848 3193459
3192848 3195006
3192848 3193011
3192848 3193852
3192848 3198473
3192848 3194845
3192848 3192767
3192848 3193551
3192920 3194909
3192920 3193387
3192920 3192818
3192920 3198008
3192920 3193459
3192920 3195006
3192920 3193011
3192920 3193852
3192920 3196741
3192920 3198473
3192920 3193513
3192920 3193200
3192920 3193090
3192920 3195038
3192920 3196611
3192920 3194845
3192920 3193232
3192920 3193551
3193513 3195394
3193513 3192818
3193513 3194845
3193513 3195402
3193513 3193551
3192818 3194909
3192818 3193387
3192818 3195017
3192818 3196641
3192818 3193090
3192818 3193459
3192818 3195006
3192818 3193011
3192818 3196563
3192818 3196741
3192818 3192790
3192818 3193852
3192818 3196611
3192818 3194845
3192818 3198473
3192818 3192767
3192818 3193551
3193090 3193387
3193090 3194311
3193090 3193459
3193090 3193011
3193090 3194406
3193090 3194303
3193090 3193551
3193387 3193459
3195394 3195402
3195394 3193551
3195402 3193551
3193551 3194311
3193551 3195006
3193551 3194406
3193551 3194303
3196741 3196611
3194311 3194406
3194311 3194303
3194406 3194303
3192790 3192767
