3187737 3186379
3186379 3188005
3186379 3186578
3186379 3191354
3186379 3189884
3186379 3188963
3186379 3186944
3186379 3186833
3186379 3189311
3186379 3191109
3186379 3189063
3186379 3192728
3186379 3189687
3186379 3187675
3186379 3187819
3186379 3190496
3186379 3189088
3186379 3190010
3186379 3191244
3186379 3191247
3186379 3190007
3186379 3186586
3186379 3187058
3186379 3190188
3186379 3191305
3186379 3191308
3186379 3190758
3186379 3188050
3186379 3191887
3186379 3189263
3186379 3190489
3186379 3191199
3186379 3186559
3186379 3192192
3186379 3187406
3186379 3191750
3186379 3189421
3186379 3187966
3186379 3186582
3186379 3187158
3186379 3189497
3186578 3188963
3186578 3186944
3186578 3186586
3186578 3186582
3186578 3186559
3188963 3186944
3188963 3186586
3188963 3186582
3186944 3186994
3186944 3191887
3186944 3187966
3186944 3186586
3186944 3186582
3186586 3186582
3186586 3186559
3186582 3189884
3186582 3187675
3186582 3187819
3186582 3188050
3186582 3186559
3186582 3192192
3186582 3187406
3191354 3189884
3191354 3191750
3189884 3191750
3187966 3189687
3187966 3190496
3187966 3189088
3187966 3190758
3187966 3190489
3187966 3189497
3186833 3190188
3189311 3187406
3187406 3189263
3189687 3189088
3189687 3189497
3189088 3189497
3189088 3189421
3190496 3190489
3190010 3190007
3191244 3191247
3191244 3191305
3191244 3191308
3191244 3191199
3191247 3191305
3191247 3191308
3191247 3191199
3191305 3191308
3191305 3191199
3191308 3191199
