3160090 3156705
3160090 3156820
3156705 3154021
3156705 3157328
3156705 3153729
3156705 3156489
3156705 3157765
3156705 3156820
3156705 3155306
3156705 3157660
3156705 3159413
3156705 3157110
3156705 3154291
3156705 3159154
3156705 3156827
3156705 3153879
3156705 3159702
3156705 3156869
3156705 3158978
3156820 3156827
3156820 3156869
3156820 3154291
3154998 3153574
3154998 3154989
3153574 3154021
3153574 3153588
3153574 3153729
3153574 3154406
3153574 3155544
3153574 3156489
3153574 3153577
3153574 3153735
3153574 3153740
3153574 3153669
3153574 3153879
3153574 3156077
3153574 3154285
3153574 3154989
3153574 3153956
3153574 3154442
3153574 3154172
3153574 3154291
3154989 3156339
3154989 3156329
3154989 3153879
3154989 3156077
3154989 3154285
3154989 3154291
3156440 3156329
3156440 3153845
3156329 3156339
3156329 3153845
3156329 3153879
3156329 3156077
3153845 3153879
3153845 3153848
3153845 3153872
3153845 3156370
3154897 3153879
3153879 3156339
3153879 3157769
3153879 3157328
3153879 3153729
3153879 3155544
3153879 3157765
3153879 3156077
3153879 3157660
3153879 3157110
3153879 3154085
3153879 3153872
3153879 3159154
3153879 3154285
3153879 3153848
3153879 3153956
3153879 3154291
3156339 3156077
3156077 3154285
3154021 3157765
3154021 3154291
3154021 3153729
3154021 3156489
3154021 3153577
3154021 3159702
3154021 3158978
3157765 3157769
3157765 3154291
3154291 3157769
3154291 3153729
3154291 3155544
3154291 3156489
3154291 3156827
3154291 3154285
3154291 3159702
3154291 3154376
3154291 3156869
3153729 3153735
3153729 3153740
3153729 3153669
3153729 3153956
3153729 3159702
3153729 3158978
3153577 3153588
3159702 3158978
3153735 3153740
3153669 3154406
3153669 3154442
3153956 3153942
3155306 3155344
3155306 3155319
3156827 3156869
3154406 3154442
3155344 3155319
3153848 3153872
3154285 3154376
