3047136 3042914
3047136 3045728
3047136 3043761
3047136 3042906
3042914 3048198
3042914 3043857
3042914 3043742
3042914 3042906
3042914 3046392
3042914 3047697
3042914 3047764
3042914 3042798
3042914 3043152
3042914 3045728
3042914 3043761
3042914 3043115
3042914 3043041
3042914 3043599
3042914 3043022
3042914 3046529
3045728 3042798
3045728 3043761
3045728 3047083
3045728 3047697
3045728 3047764
3045728 3049093
3045728 3046032
3045728 3043742
3045728 3042906
3045728 3046392
3045728 3043022
3045728 3046529
3043761 3042798
3043761 3044074
3043761 3047083
3043761 3043742
3043761 3046392
3043761 3048946
3043761 3046885
3043761 3047764
3043761 3048903
3043761 3043857
3043761 3048475
3043761 3042906
3043761 3043022
3043761 3047697
3043761 3048854
3042906 3042798
3042906 3045832
3042906 3044074
3042906 3043152
3042906 3043441
3042906 3043857
3042906 3047083
3042906 3043742
3042906 3046840
3042906 3043115
3042906 3043339
3042906 3048475
3042906 3046392
3042906 3043022
3042906 3046885
3042906 3047697
3042906 3047764
3042906 3049093
3042906 3045871
3042906 3047492
3042906 3043041
3042906 3043599
3042906 3048946
3042906 3046529
3042906 3048903
3048198 3043857
3043857 3042798
3043857 3043742
3043857 3043339
3043857 3043022
3043742 3042798
3043742 3045832
3043742 3045962
3043742 3047083
3043742 3045906
3043742 3043022
3043742 3045871
3046392 3047492
3046392 3043022
3047697 3047764
3042798 3042862
3042798 3045962
3042798 3043041
3042798 3045906
3042798 3042793
3042798 3043022
3042798 3048946
3042798 3045871
3043152 3044183
3043152 3043991
3043152 3043041
3043152 3044296
3043152 3043115
3043152 3043979
3043115 3043041
3043041 3043022
3043599 3043022
3043022 3045832
3043022 3043441
3043022 3047083
3043022 3046840
3043022 3043339
3043022 3048475
3043022 3047492
3045906 3045871
3045871 3043339
3044183 3044296
3043991 3043979
3048475 3047492
3043441 3043339
