3030127 3030163
3030127 3030845
3030127 3035534
3030127 3032058
3030127 3032138
3030127 3031328
3030127 3031104
3030127 3034246
3030127 3030206
3030127 3034458
3030127 3031069
3030127 3030189
3030127 3032611
3030127 3030577
3030127 3032454
3030127 3030087
3030127 3031126
3030163 3030206
3030163 3030189
3030163 3030087
3030845 3030206
3030845 3030189
3030845 3032058
3030845 3030577
3030845 3032454
3030845 3031328
3030845 3031126
3030845 3031104
3035534 3032058
3035534 3032454
3032058 3030206
3032058 3031069
3032058 3032611
3032058 3030577
3032058 3032207
3032138 3032454
3031328 3030189
3031104 3030206
3031104 3030189
3031104 3031126
3034246 3031069
3034246 3030577
3034246 3034259
3034246 3030206
3030206 3031069
3030206 3030189
3030206 3030577
3030206 3030087
3030206 3031126
3031069 3030577
3030189 3030577
3030189 3030087
3030189 3031126
3032611 3030577
