3024586 3024951
3024586 3024312
3024586 3024330
3024586 3024512
3024586 3024377
3024586 3026245
3024586 3024359
3024586 3024581
3024586 3024462
3024586 3024508
3024586 3024465
3024586 3024481
3024951 3024704
3024951 3025095
3024951 3026245
3024951 3024989
3024951 3024859
3024951 3024330
3024951 3024512
3024951 3024359
3024312 3024351
3024312 3024377
3024312 3024421
3024312 3024359
3024312 3024281
3024312 3024581
3024312 3024330
3024312 3024462
3024312 3024512
3024312 3024508
3024312 3024465
3024312 3024481
3024330 3024351
3024330 3024989
3024330 3024281
3024330 3024581
3024330 3024859
3024330 3027324
3024330 3024512
3024330 3024377
3024330 3024421
3024330 3026351
3024330 3029359
3024330 3024359
3024330 3024462
3024330 3024704
3024330 3024508
3024330 3025095
3024330 3024465
3024330 3026245
3024330 3024481
3024330 3027288
3024330 3024657
3024512 3024581
3024512 3024462
3024512 3024704
3024512 3024377
3024512 3026245
3024512 3024359
3024512 3024508
3024512 3024465
3024512 3024481
3024377 3024351
3024377 3024281
3024377 3024581
3024377 3024462
3024377 3024704
3024377 3024421
3024377 3024508
3024377 3024359
3024377 3024727
3024377 3024465
3024377 3026245
3024377 3024481
3026245 3026543
3026245 3024859
3026245 3024704
3026245 3025095
3026245 3026503
3026245 3026351
3026245 3024359
3026245 3024657
3024359 3024351
3024359 3024989
3024359 3024281
3024359 3024581
3024359 3024859
3024359 3024462
3024359 3024704
3024359 3024421
3024359 3024508
3024359 3024465
3024359 3024481
3024359 3026351
3024581 3024462
3024581 3024508
3024581 3024465
3024581 3024481
3024462 3024508
3024462 3024465
3024462 3024481
3024508 3024704
3024508 3024727
3024508 3024465
3024508 3024481
3024465 3024481
3024351 3024281
3024351 3024421
3024281 3024859
3024281 3027324
3024281 3024421
3024281 3024704
3024281 3027288
3024704 3024989
3024704 3026543
3024704 3024859
3024704 3026351
3024704 3024727
3024704 3025095
3024704 3026503
3024704 3029359
3024704 3024657
3025095 3026543
3025095 3024859
3025095 3029359
3025095 3026503
3025095 3027778
3025095 3024657
3024989 3024859
3024859 3029359
3024859 3026351
3026543 3026503
3026503 3027778
3027324 3027288
