2934545 2931968
2934545 2930859
2931968 2936839
2931968 2931714
2931968 2934390
2931968 2936754
2931968 2931912
2931968 2930708
2931968 2931444
2931968 2932597
2931968 2931151
2931968 2935119
2931968 2931726
2931968 2935541
2931968 2930762
2931968 2931682
2931968 2930996
2931968 2934227
2931968 2931737
2931968 2931808
2931968 2934103
2931968 2933198
2931968 2930859
2931968 2933981
2930859 2936839
2930859 2931714
2930859 2931749
2930859 2934390
2930859 2935541
2930859 2932090
2930859 2934431
2930859 2932519
2930859 2932228
2930859 2930762
2930859 2931317
2930859 2932155
2930859 2931682
2930859 2930996
2930859 2934227
2930859 2931737
2930859 2934467
2930859 2931411
2930859 2930708
2930859 2931808
2930859 2931444
2930859 2934487
2930859 2932208
2930859 2930778
2930859 2932597
2930859 2933308
2930859 2934103
2930859 2933198
2930859 2932692
2930859 2931151
2930859 2933981
2930859 2931726
2936839 2931714
2936839 2931682
2936839 2934227
2936839 2931737
2931714 2931749
2931714 2936754
2931714 2935541
2931714 2931682
2931714 2930996
2931714 2930708
2931714 2931808
2931714 2931444
2931714 2932597
2931714 2931151
2931714 2934390
2931714 2932090
2931714 2930762
2931714 2934227
2931714 2931737
2931714 2934103
2931714 2933198
2931714 2933981
2931714 2931726
2931682 2931749
2931682 2934390
2931682 2936754
2931682 2935541
2931682 2930762
2931682 2930996
2931682 2930708
2931682 2931808
2931682 2931444
2931682 2932597
2931682 2934103
2931682 2931151
2931682 2934227
2931682 2931737
2931682 2933198
2931682 2933981
2931682 2931726
2934227 2930762
2934227 2930996
2934227 2931737
2934227 2931808
2934227 2931726
2931737 2931749
2931737 2934390
2931737 2936754
2931737 2935541
2931737 2932090
2931737 2933796
2931737 2932228
2931737 2930762
2931737 2931912
2931737 2932155
2931737 2930996
2931737 2930708
2931737 2931808
2931737 2931444
2931737 2931726
2931737 2932208
2931737 2935119
2931749 2930762
2931749 2931808
2931749 2931726
2935541 2933198
2930996 2934390
2930996 2930993
2930996 2930762
2930708 2930762
2930708 2931317
2930708 2931411
2930708 2930755
2930708 2930721
2930708 2930778
2930708 2931444
2931808 2930762
2931808 2931726
2931444 2930762
2931444 2931317
2931444 2931411
2931444 2930778
2932597 2934390
2932597 2934431
2932597 2932519
2932597 2930762
2932597 2934467
2932597 2934487
2932597 2931726
2931151 2934390
2931151 2930762
2931151 2931912
2931151 2932919
2934390 2930762
2934390 2931726
2932090 2932228
2932090 2932155
2932090 2932208
2930762 2934431
2930762 2934487
2930762 2930778
2930762 2934103
2930762 2933198
2930762 2931726
2930762 2934467
2930762 2930755
2930762 2930721
2930762 2932692
2930762 2933981
2934103 2933198
2934103 2933981
2933198 2933981
2931912 2935119
2932228 2932155
2932228 2932208
2932155 2932208
2930993 2937527
2934431 2934467
2934431 2934487
2934467 2934487
2930778 2931317
2930778 2931411
2930778 2930755
2930778 2930721
2930755 2930721
2931317 2931411
