4 3 57
3 4 55
3 10 50
10 3 48
3 12 47
12 3 45
21 3 9
3 21 7
3 5 6
3 11 6
11 3 6
22 12 6
5 3 5
10 11 5
11 10 5
12 21 5
12 4 4
10 12 3
3 14 3
4 12 3
12 20 3
20 12 3
3 22 3
12 22 3
5 6 2
6 5 2
5 7 2
7 5 2
10 4 2
14 3 2
14 10 2
15 3 2
21 12 2
23 3 2
12 10 2
10 27 2
27 24 2
27 3 2
1 2 1
2 3 1
4 5 1
3 6 1
6 3 1
5 8 1
8 9 1
9 10 1
10 8 1
8 10 1
4 10 1
5 13 1
13 3 1
10 15 1
3 15 1
10 16 1
16 3 1
3 16 1
16 10 1
10 14 1
3 17 1
17 3 1
12 18 1
18 4 1
10 5 1
5 12 1
4 19 1
19 4 1
21 22 1
22 3 1
12 23 1
3 24 1
24 10 1
10 25 1
25 12 1
12 25 1
25 3 1
3 26 1
26 3 1
24 27 1
24 14 1
14 28 1
28 27 1
3 23 1
3 27 1
27 14 1
14 27 1
27 29 1
29 10 1
12 27 1
27 30 1
30 10 1
