2910670 2909400
2910670 2909719
2910670 2910652
2910670 2910512
2910670 2910463
2910670 2911150
2910670 2911148
2910670 2910636
2909400 2909432
2909400 2910826
2909400 2915803
2909400 2909719
2909400 2915480
2909400 2909634
2909400 2915130
2909400 2910463
2909400 2916985
2909400 2911347
2909400 2909407
2909400 2911374
2909400 2910862
2909400 2915784
2909400 2909414
2909400 2909587
2909400 2910512
2909400 2909391
2909400 2911324
2909400 2911302
2909400 2910652
2909400 2909424
2909400 2909840
2909400 2909950
2909719 2916288
2909719 2909699
2909719 2910826
2909719 2915803
2909719 2909728
2909719 2913338
2909719 2911324
2909719 2911374
2909719 2909840
2909719 2909950
2909719 2910862
2909719 2915784
2909719 2911921
2909719 2909781
2909719 2910636
2909719 2910028
2909719 2910512
2909719 2910463
2909719 2911302
2909719 2910652
2909719 2911150
2909719 2911347
2909719 2909710
2909719 2910218
2909719 2909696
2910652 2916288
2910652 2910833
2910652 2910826
2910652 2915803
2910652 2916657
2910652 2911048
2910652 2915480
2910652 2910512
2910652 2913338
2910652 2910463
2910652 2911324
2910652 2911302
2910652 2913823
2910652 2911150
2910652 2909840
2910652 2915784
2910652 2911347
2910652 2911374
2910652 2910862
2910652 2911148
2910652 2910636
2910512 2910826
2910512 2915803
2910512 2911048
2910512 2912320
2910512 2913338
2910512 2910463
2910512 2912307
2910512 2911324
2910512 2911150
2910512 2915784
2910512 2909840
2910512 2912208
2910463 2910826
2910463 2912320
2910463 2913338
2910463 2912767
2910463 2911324
2910463 2911150
2910463 2909840
2910463 2911921
2910463 2912208
2910463 2913823
2910463 2911347
2910463 2911148
2911150 2910826
2911150 2912320
2911150 2913338
2911150 2912767
2911150 2911324
2911150 2913823
2911150 2911921
2911150 2911347
2911150 2909840
2911150 2911148
2916288 2909840
2909840 2910833
2909840 2910826
2909840 2911324
2909840 2911302
2909840 2911347
2909840 2911374
2909840 2909950
2909840 2911921
2909840 2909781
2909840 2910028
2909432 2909424
2909432 2909391
2909432 2909407
2909432 2909414
2910826 2910833
2910826 2910862
2910826 2913338
2910826 2911324
2910826 2911347
2915803 2915784
2909634 2909587
2915130 2916853
2915130 2916784
2911347 2911324
2911347 2911302
2911347 2913823
2911347 2911374
2911347 2911921
2909407 2909391
2909407 2909424
2909407 2909414
2911374 2911324
2911374 2911302
2910862 2909950
2909414 2909391
2909414 2909424
2909391 2909424
2911324 2913338
2911324 2911302
2909950 2909781
2909950 2910028
2909699 2909728
2909699 2909781
2909699 2909710
2909699 2909696
2909728 2909781
2909728 2909710
2909728 2909696
2909781 2910028
2909781 2909929
2909781 2909710
2909781 2909696
2909710 2909929
2909710 2909696
2909696 2909929
2916853 2916784
