2897747 2897815
2897747 2891736
2897815 2891736
2891736 2903444
2891736 2902601
2891736 2895165
2891736 2896789
2891736 2898518
2891736 2896492
2891736 2898448
2891736 2897657
2891736 2901720
2891736 2891706
2891736 2897379
2891736 2891672
2891736 2891779
2891736 2897662
2903444 2891779
2902601 2901720
2902601 2891779
2895165 2896485
2895165 2896789
2895165 2896492
2895165 2891779
2896789 2891779
2896789 2896492
2898518 2898448
2898518 2899842
2898518 2891779
2896492 2896485
2896492 2891779
2898448 2901233
2898448 2891779
2898448 2892749
2898448 2898728
2898448 2898718
2897657 2897662
2897657 2897379
2897657 2891779
2901720 2891779
2891706 2891779
2891706 2891672
2897379 2897662
2897379 2891779
2891672 2891779
2891779 2894861
2891779 2893420
2891779 2896485
2891779 2892749
2891779 2894084
2891779 2894494
2891779 2892086
2891779 2901233
2891779 2895835
2891779 2892156
2891779 2893294
2891779 2899842
2891779 2894111
2891779 2893062
2891779 2897662
2891779 2892239
2891779 2892077
2893420 2893294
2893420 2893062
2893294 2893062
2893062 2893155
2893062 2893073
2901233 2892749
2892749 2892886
2898728 2898718
2894084 2894494
2893155 2893073
2892086 2892156
2892086 2892239
2892086 2892077
2892156 2892239
2892156 2892077
2892239 2892077
