2747844 2742765
2742765 2743829
2742765 2746099
2742765 2742816
2742765 2742847
2742765 2744104
2742765 2742844
2742765 2746104
2742765 2742819
2742765 2742771
2742765 2745705
2742765 2746482
2742765 2743543
2742765 2743779
2742765 2744842
2742765 2742785
2744984 2742816
2742816 2745541
2742816 2742819
2742816 2742847
2742816 2742771
2742816 2742785
2742816 2744998
2742816 2742844
2743829 2743779
2743829 2742844
2743779 2742844
2742844 2743471
2742844 2742819
2742844 2742847
2742844 2742771
2742844 2745129
2742844 2743543
2742844 2743481
2742844 2744842
2742844 2742785
2746099 2746104
2742847 2742785
2744104 2742819
2742819 2745350
2742819 2742771
2742819 2744998
2742819 2742785
2742771 2745739
2742771 2744842
2742771 2742785
2745705 2745708
2745705 2745930
2745705 2745739
2745705 2744998
2745705 2742785
2744842 2742785
2742785 2746939
2742785 2745129
2742785 2744505
2745708 2745739
2743471 2743481
