2634100 2634131
2634100 2634115
2634100 2634221
2634100 2633295
2634100 2634110
2634100 2634211
2634100 2634167
2634100 2634195
2634100 2634104
2634100 2634093
2634131 2634962
2634131 2635663
2634131 2634221
2634131 2634934
2634131 2635244
2634131 2634211
2634131 2634167
2634131 2634195
2634131 2634858
2634131 2639559
2634131 2634115
2634131 2637837
2634131 2633295
2634131 2634110
2634131 2637032
2634131 2634349
2634131 2634984
2634131 2634093
2634131 2634104
2634115 2634221
2634115 2633295
2634115 2634211
2634115 2634167
2634115 2634195
2634115 2634110
2634115 2634093
2634115 2634104
2634221 2633295
2634221 2634110
2634221 2634211
2634221 2634167
2634221 2634195
2634221 2634093
2634221 2634104
2633295 2634962
2633295 2635663
2633295 2638697
2633295 2633409
2633295 2633243
2633295 2633502
2633295 2634934
2633295 2633277
2633295 2633352
2633295 2634349
2633295 2635244
2633295 2633356
2633295 2633349
2633295 2634984
2633295 2634211
2633295 2634167
2633295 2634195
2633295 2634858
2633295 2633360
2633295 2633346
2633295 2634110
2633295 2637032
2633295 2639559
2633295 2634093
2633295 2634035
2633295 2634104
2634110 2634211
2634110 2634167
2634110 2634195
2634110 2634093
2634110 2634104
2634211 2634167
2634211 2634195
2634211 2634093
2634211 2634104
2634167 2634195
2634167 2634093
2634167 2634104
2634195 2634093
2634195 2634104
2634104 2634093
2634962 2635663
2634962 2635244
2634962 2634984
2634962 2634858
2634962 2639559
2634962 2637837
2634962 2634934
2634962 2637032
2635663 2634934
2635663 2634858
2634934 2638697
2634934 2634984
2634934 2634858
2635244 2634858
2634858 2637837
2634858 2637032
2634858 2634984
2634858 2639559
2639559 2637032
2633409 2633243
2633409 2633277
2633409 2633352
2633409 2633356
2633409 2633349
2633409 2633360
2633409 2633346
2633243 2633277
2633243 2633352
2633243 2633356
2633243 2633349
2633243 2633360
2633243 2633346
2633277 2633502
2633277 2633352
2633277 2633356
2633277 2633349
2633277 2633360
2633277 2633346
2633277 2634035
2633352 2633356
2633352 2633360
2633352 2633349
2633352 2633346
2633356 2633360
2633356 2633349
2633356 2633346
2633349 2633360
2633349 2633346
2633360 2633346
