2628953 2628781
2628953 2626481
2628953 2629338
2628953 2629178
2628953 2626974
2628953 2626562
2628781 2626481
2628781 2629338
2628781 2629178
2628781 2626974
2628781 2626562
2626481 2627698
2626481 2629338
2626481 2629178
2626481 2630854
2626481 2630796
2626481 2630099
2626481 2627729
2626481 2626974
2626481 2626478
2626481 2628002
2626481 2627140
2626481 2626562
2629338 2630854
2629338 2626974
2629338 2629178
2629338 2626562
2629178 2626974
2629178 2626562
2626974 2627698
2626974 2627276
2626974 2630854
2626974 2630796
2626974 2627729
2626974 2626562
2626562 2627698
2626562 2627276
2626562 2626478
2626562 2630854
2626562 2627729
2627698 2627729
