2615401 2614610
2615401 2617842
2615401 2617583
2615401 2615506
2615401 2615992
2615401 2617334
2614610 2617173
2614610 2615506
2614610 2615992
2614610 2614557
2614610 2618494
2614610 2614595
2614610 2617334
2614610 2614519
2614610 2615431
2614610 2616744
2614610 2620730
2614610 2615436
2614610 2614728
2614610 2615633
2614610 2614768
2614610 2614566
2614610 2617842
2614610 2615153
2614610 2617583
2617842 2615506
2617842 2615992
2617842 2617334
2617842 2620730
2617842 2617583
2617583 2615506
2617583 2615992
2617583 2617334
2617583 2616744
2617583 2619386
2615506 2617334
2615506 2616744
2615506 2620730
2615506 2615633
2615506 2619750
2615506 2618200
2615506 2619386
2615506 2615992
2615992 2617334
2615992 2616744
2615992 2620730
2615992 2619386
2617334 2618494
2617334 2616744
2617334 2620730
2614557 2614595
2614557 2614768
2614557 2614566
2614557 2614519
2614557 2615153
2614595 2614519
2614595 2614566
2614768 2614519
2614768 2614728
2614768 2614566
2614768 2615153
2614566 2614519
2614566 2614728
2614519 2615153
2615431 2615436
