2511749 2511705
2511749 2511790
2511749 2511001
2511705 2512691
2511705 2511790
2511705 2512987
2511705 2511001
2511705 2514296
2511790 2511835
2511790 2512192
2511790 2511190
2511790 2513056
2511790 2511838
2511790 2511959
2511790 2511001
2511790 2513561
2511790 2512214
2511001 2511835
2511001 2514840
2511001 2512192
2511001 2515941
2511001 2511190
2511001 2513056
2511001 2512557
2511001 2512691
2511001 2511838
2511001 2511030
2511001 2511186
2511001 2514891
2511001 2510997
2511001 2513565
2511001 2510975
2511001 2512987
2511001 2513561
2511001 2512214
2511001 2511959
2511001 2515975
2511001 2515607
2511001 2511387
2511001 2515964
2511001 2514296
2511001 2511403
2513190 2511190
2513190 2511440
2513190 2511186
2513190 2511196
2513190 2511403
2511190 2511835
2511190 2511440
2511190 2511186
2511190 2511196
2511190 2513561
2511190 2511403
2511190 2511387
2511190 2513565
2511440 2511186
2511440 2511196
2511440 2511387
2511440 2511403
2511440 2511468
2511186 2511403
2511186 2511387
2511186 2511196
2511196 2511403
2511403 2511838
2511403 2513561
2511403 2512214
2511403 2515975
2511403 2511387
2511835 2512192
2511835 2513056
2511835 2511838
2511835 2511959
2511835 2512214
2512192 2512214
2512192 2511959
2513056 2512214
2511838 2511959
2511838 2512214
2511959 2512557
2511959 2513561
2511959 2512214
2511959 2515975
2512214 2512557
2512214 2515607
2514840 2513565
2513565 2513561
2513561 2515975
2511387 2514891
2512875 2512900
2512875 2512691
2512875 2512858
2512875 2512846
2512900 2512691
2512900 2512858
2512900 2512846
2512691 2512987
2512691 2512697
2512691 2512846
2512691 2512858
2512858 2512846
2511030 2510997
2511030 2510975
2510997 2510975
2515975 2515964
