2461585 2461594
2461585 2461590
2461594 2461704
2461594 2457844
2461594 2461670
2461594 2461615
2461594 2461642
2461594 2461590
2461594 2461713
2461594 2461690
2461594 2461605
2459101 2459142
2459101 2458137
2459101 2459084
2459101 2459090
2459142 2458137
2459142 2459084
2459142 2459090
2458137 2460447
2458137 2459159
2458137 2457844
2458137 2460999
2458137 2458111
2458137 2458633
2458137 2458646
2458137 2458625
2458137 2459519
2458137 2462998
2458137 2458833
2458137 2458100
2458137 2458986
2458137 2460141
2458137 2460079
2458137 2459084
2458137 2458133
2458137 2461040
2458137 2458012
2458137 2459090
2458137 2462417
2459084 2461447
2459084 2459090
2459159 2458111
2457844 2457841
2457844 2457780
2457844 2459616
2457844 2458012
2457844 2457865
2457844 2459519
2457844 2461690
2457844 2458625
2460999 2461040
2458111 2458100
2458111 2461528
2458111 2458133
2458111 2458012
2458633 2458646
2458633 2458625
2458646 2458625
2458625 2457780
2459519 2458012
2458100 2458133
2460079 2462074
2460079 2458012
2460079 2462417
2458012 2462074
2458012 2458900
2458012 2460198
2458012 2458009
2458012 2458022
2458012 2462417
2461704 2461713
2457841 2458041
2457841 2457865
2458041 2457865
2457865 2457784
2457865 2457888
2457865 2457868
2457784 2458724
2457784 2457790
2457784 2458419
2457784 2458741
2457784 2460863
2457784 2462290
2457784 2457888
2457784 2462242
2457784 2462815
2457784 2457780
2457784 2462844
2457784 2459616
2457784 2457868
2458724 2458741
2457790 2457780
2460863 2459616
2462290 2462242
2457888 2457868
2462815 2462844
2457780 2458377
2461670 2461690
2461670 2461615
2461670 2461642
2461670 2461605
2461615 2461690
2461615 2461642
2461615 2461605
2461642 2461690
2461642 2461605
2461690 2461605
2458009 2458022
