2291943 2291683
2291943 2291940
2291943 2298282
2291943 2292180
2291943 2293791
2291943 2291776
2291943 2293810
2291943 2293584
2291943 2293794
2291943 2292378
2291683 2296730
2291683 2291847
2291683 2296006
2291683 2291776
2291683 2291697
2291683 2293584
2291683 2297138
2291683 2292180
2291683 2293472
2291683 2291940
2291683 2295996
2291683 2296922
2291683 2295053
2291683 2292788
2291683 2292563
2291683 2293385
2291683 2293642
2291940 2294553
2291940 2292032
2291940 2292462
2291940 2297751
2291940 2294658
2291940 2297045
2291940 2292180
2291940 2294655
2291940 2291776
2291940 2293271
2291940 2298282
2291940 2293584
2291940 2292322
2291940 2297734
2291940 2293429
2291940 2297667
2298282 2292180
2292180 2293271
2292180 2292322
2292180 2293429
2293791 2293810
2293791 2293794
2291776 2296730
2291776 2292032
2291776 2292629
2291776 2292788
2291776 2293271
2291776 2293584
2291776 2292378
2291776 2292563
2293810 2293794
2293584 2293429
2293584 2297840
2293584 2297726
2294553 2294658
2294553 2292322
2294553 2294655
2294553 2297751
2294553 2297864
2294553 2297734
2294658 2292322
2294658 2294655
2292322 2294655
2297751 2297734
2297734 2292788
2296730 2297359
2292799 2292563
2292799 2292788
2292563 2292629
2292563 2292788
2292563 2292558
2296006 2297138
2296006 2295996
2293429 2293439
2293429 2297840
2293429 2297667
2293429 2297726
2297667 2297726
2292629 2292558
2297840 2297726
