20 6 30
6 20 29
6 15 22
15 6 21
15 16 16
16 15 15
16 6 11
6 16 9
6 31 9
23 6 8
22 23 7
19 6 6
20 22 6
6 23 6
31 6 6
15 32 6
32 15 6
20 15 6
6 19 5
22 6 5
6 22 5
6 32 5
32 6 5
23 22 5
2 3 4
15 20 4
32 20 4
3 2 3
6 7 3
16 20 3
20 16 3
19 15 3
15 31 3
33 6 3
31 15 3
20 7 3
31 20 3
45 32 3
22 20 3
3 6 2
6 12 2
12 6 2
15 19 2
22 19 2
6 33 2
6 34 2
7 6 2
16 19 2
3 20 2
6 3 2
15 43 2
32 45 2
20 32 2
4 6 2
6 4 2
15 23 2
31 22 2
22 31 2
1 2 1
3 4 1
4 5 1
5 3 1
7 8 1
8 9 1
9 6 1
6 10 1
10 7 1
7 11 1
11 6 1
6 13 1
13 14 1
14 6 1
15 17 1
17 16 1
7 18 1
18 6 1
19 16 1
6 21 1
21 20 1
20 19 1
19 20 1
19 22 1
23 19 1
19 23 1
16 24 1
24 25 1
25 26 1
26 27 1
27 28 1
28 29 1
29 3 1
3 16 1
16 30 1
30 15 1
31 19 1
19 31 1
34 33 1
20 35 1
35 20 1
6 36 1
36 19 1
6 37 1
37 6 1
15 38 1
38 20 1
16 39 1
39 40 1
40 16 1
16 41 1
41 16 1
19 42 1
42 6 1
6 11 1
11 3 1
3 36 1
36 6 1
20 31 1
31 33 1
33 32 1
43 31 1
20 44 1
44 16 1
31 32 1
32 33 1
33 19 1
15 45 1
19 33 1
33 20 1
20 46 1
46 47 1
47 48 1
48 43 1
43 3 1
3 49 1
49 6 1
6 50 1
50 51 1
51 15 1
43 52 1
52 6 1
6 53 1
53 54 1
54 20 1
20 55 1
55 4 1
4 56 1
56 6 1
6 57 1
57 20 1
6 58 1
58 59 1
59 60 1
60 61 1
61 16 1
34 20 1
23 20 1
20 23 1
23 15 1
22 62 1
62 63 1
63 31 1
16 31 1
31 16 1
31 53 1
53 15 1
15 22 1
3 22 1
22 15 1
6 64 1
64 22 1
23 65 1
65 31 1
31 7 1
7 66 1
66 6 1
22 3 1
7 67 1
67 3 1
7 68 1
68 20 1
20 69 1
69 70 1
70 71 1
71 6 1
