2176078 2177274
2176078 2177524
2176078 2176127
2176078 2178157
2176078 2176422
2176078 2176212
2176078 2176436
2176078 2176130
2176078 2176519
2176078 2176708
2177274 2177524
2177274 2177321
2177274 2176422
2177274 2176212
2177274 2176436
2177274 2178295
2177274 2176991
2177524 2183147
2177524 2176212
2176127 2176436
2176127 2176130
2176127 2176519
2178157 2176212
2176422 2176198
2176422 2178464
2176422 2176416
2176422 2176978
2176422 2177752
2176422 2176832
2176422 2180605
2176422 2178295
2176422 2176991
2176422 2176519
2176422 2176212
2176422 2176436
2176422 2178773
2176422 2178591
2176212 2176342
2176212 2176857
2176212 2176198
2176212 2176639
2176212 2178464
2176212 2176416
2176212 2176978
2176212 2176194
2176212 2176832
2176212 2178311
2176212 2176829
2176212 2176436
2176212 2178950
2176212 2178295
2176212 2176941
2176212 2178773
2176212 2176991
2176212 2176313
2176212 2176519
2176212 2178591
2176212 2182247
2176212 2176708
2176436 2176198
2176436 2178464
2176436 2176416
2176436 2176978
2176436 2178295
2176436 2176991
2176436 2176519
2176436 2178773
2176436 2178591
2176519 2176198
2176519 2178464
2176519 2176416
2176519 2176978
2176519 2178295
2176519 2178773
2176519 2176991
2176519 2178591
2176342 2176313
2178295 2176198
2178295 2178464
2178295 2176416
2178295 2178311
2178295 2178773
2178295 2178591
2178295 2176991
2176991 2178464
2176991 2176416
2176991 2176978
2176991 2177752
2176991 2180605
2176991 2178773
2176991 2178591
2176857 2176941
2176857 2176832
2176857 2176829
2176941 2176832
2176941 2176829
2176832 2176829
2176198 2176639
2176198 2178464
2176198 2176416
2176198 2176194
2176198 2182247
2176639 2182247
2176639 2178773
2178464 2181555
2178464 2178480
2178464 2179849
2178464 2178591
2178464 2176416
2178464 2178773
2176416 2181555
2176416 2176978
2176416 2178773
2176416 2178591
2176194 2180497
2178773 2178765
2178773 2178950
