2126925 2126936
2126936 2125582
2125582 2128955
2125582 2131374
2125582 2125432
2125582 2126094
2125582 2126101
2125582 2126013
2125582 2125793
2125582 2127870
2125582 2127244
2125582 2125441
2125582 2128627
2125582 2125763
2125582 2127305
2125582 2125560
2125582 2125556
2125582 2126035
2125582 2127667
2128955 2125432
2128955 2127305
2128955 2127771
2128955 2128987
2128955 2129003
2125432 2131374
2125432 2127921
2125432 2126101
2125432 2127870
2125432 2130427
2125432 2127880
2125432 2127305
2125432 2125560
2125432 2125507
2125432 2125556
2125432 2126094
2125432 2125441
2125432 2128627
2125432 2125763
2127305 2131374
2127305 2127244
2127305 2125441
2127305 2128987
2127305 2129003
2127305 2127667
2127305 2127661
2127305 2127298
2127305 2127771
2127771 2128987
2127771 2129003
2128987 2129003
2131374 2125441
2125441 2127921
2125441 2126101
2125441 2127870
2125441 2127244
2125441 2127880
2125441 2128627
2125441 2125763
2125441 2125507
2127921 2126101
2127921 2127870
2127921 2127880
2126101 2126094
2126101 2127870
2126101 2128627
2126101 2125560
2126101 2125556
2126101 2127880
2126101 2125763
2127870 2128627
2127870 2127880
2127880 2128627
2125560 2126094
2125560 2125763
2125560 2125556
2125556 2126094
2125556 2125763
2126094 2125763
2125763 2125793
2126013 2126035
2127244 2127667
2127667 2127661
