2097809 2092420
2097809 2097061
2097809 2097694
2092420 2091540
2092420 2092436
2092420 2092391
2092420 2096985
2092420 2094762
2092420 2092694
2092420 2092403
2092420 2097047
2092420 2092706
2092420 2097061
2092420 2098012
2092420 2092295
2092420 2094720
2092420 2097015
2092420 2091480
2092420 2091697
2092420 2097694
2097061 2091540
2097061 2092436
2097061 2097250
2097061 2097047
2097061 2097015
2097061 2097443
2097061 2097742
2097061 2097541
2097061 2098012
2097061 2097694
2097694 2092436
2097694 2097047
2097694 2097742
2097694 2097015
2097694 2097541
2092831 2092888
2092831 2092955
2092831 2092974
2092831 2092759
2092831 2092436
2092831 2092815
2092831 2092706
2092888 2092759
2092888 2092436
2092888 2092955
2092888 2092974
2092888 2092815
2092888 2092706
2092955 2092759
2092955 2092436
2092955 2092815
2092955 2092974
2092955 2092706
2092974 2092759
2092974 2092436
2092974 2092815
2092974 2092706
2092974 2096220
2092974 2092295
2092974 2091480
2092759 2092278
2092759 2092436
2092759 2092815
2092759 2092706
2092759 2092295
2092436 2092289
2092436 2095508
2092436 2091540
2092436 2092278
2092436 2095919
2092436 2094762
2092436 2092815
2092436 2092694
2092436 2093544
2092436 2092403
2092436 2094808
2092436 2095264
2092436 2096338
2092436 2092295
2092436 2092014
2092436 2092465
2092436 2096286
2092436 2097742
2092436 2091480
2092436 2096208
2092436 2097047
2092436 2092706
2092436 2096220
2092436 2097015
2092436 2097541
2092815 2092706
2092706 2092694
2092706 2092403
2092289 2091540
2092289 2092295
2092289 2091480
2092289 2092278
2092289 2093544
2092289 2092014
2091540 2091755
2091540 2096396
2091540 2096381
2091540 2096389
2091540 2092227
2091540 2094481
2091540 2091745
2091540 2093351
2091540 2093544
2091540 2097250
2091540 2091577
2091540 2094175
2091540 2093227
2091540 2092403
2091540 2097047
2091540 2092064
2091540 2092295
2091540 2092014
2091540 2094361
2091540 2094952
2091540 2092184
2091540 2091480
2091540 2092278
2091540 2096208
2091540 2095919
2091540 2091685
2091540 2092133
2091540 2094659
2091540 2096985
2091540 2094762
2091540 2091613
2091540 2091572
2091540 2091523
2091540 2094808
2091540 2093001
2091540 2096220
2091540 2095264
2091540 2093006
2091540 2091679
2091540 2094194
2091540 2091697
2091540 2096338
2091540 2094720
2091540 2097015
2091540 2096286
2092295 2092278
2092295 2094481
2092295 2094762
2092295 2093903
2092295 2092403
2092295 2096220
2092295 2093627
2092295 2092519
2092295 2091480
2091480 2092278
2091480 2094762
2091480 2093903
2091480 2092403
2091480 2096220
2091480 2093627
2091480 2091506
2091480 2092014
2091480 2092465
2091480 2092519
2093544 2092403
2093544 2092014
2092014 2091697
2095508 2095919
2095508 2092694
2095919 2096208
2095919 2095744
2095919 2092403
2095919 2094808
2095919 2095264
2095919 2096338
2095919 2096286
2095919 2096220
2095919 2094720
2092694 2092403
2091755 2091685
2091755 2091745
2091755 2091679
2091755 2091697
2096396 2096381
2096396 2096389
2096396 2094808
2096381 2096389
2096381 2094808
2096389 2094808
2094481 2092403
2091745 2091685
2091745 2091679
2091745 2091697
2093351 2093227
2093351 2092403
2091577 2091613
2091577 2091572
2094175 2092403
2093227 2092403
2092403 2096208
2092403 2092391
2092403 2097328
2092403 2094762
2092403 2095744
2092403 2095264
2092403 2096338
2092403 2094720
2092403 2094952
2092403 2094808
2092403 2093001
2092403 2096220
2092403 2094194
2092403 2094361
2092403 2096286
2097047 2097015
2097047 2097742
2097047 2097541
2092064 2092184
2092064 2091697
2096208 2094808
2096208 2096220
2096208 2095264
2096208 2096338
2096208 2096286
2091685 2091697
2091685 2091679
2092133 2091697
2094762 2094808
2094762 2094194
2091613 2091572
2094808 2095264
2094808 2096338
2094808 2096220
2094808 2094194
2094808 2096286
2093001 2093006
2096220 2095264
2096220 2096338
2096220 2096286
2095264 2096338
2095264 2096286
2091679 2091697
2094194 2094720
2094194 2094700
2096338 2096286
2094720 2095744
2094720 2094700
2097015 2097742
2097015 2097541
2097742 2097541
2093903 2093627
2093627 2092519
