2072075 2072047
2072075 2071784
2072075 2074072
2072075 2072050
2072075 2071957
2072075 2072746
2072075 2072038
2072047 2071957
2072047 2074072
2072047 2076019
2072047 2072050
2072047 2072038
2071784 2072089
2071784 2071957
2071784 2071773
2071784 2075411
2071784 2073431
2071784 2072771
2071784 2076019
2071784 2075038
2071784 2076156
2071784 2072746
2071784 2071849
2071784 2074758
2071784 2076531
2071784 2075498
2071784 2071780
2071784 2076225
2071784 2077848
2071784 2074826
2074072 2072050
2072050 2071957
2072050 2072038
2071957 2072089
2071957 2074661
2071957 2075038
2071957 2072038
2071957 2074601
2071957 2074758
2071957 2076531
2071957 2072746
2071957 2076225
2071957 2077848
2071957 2074826
2072746 2072089
2072746 2074758
2072746 2074721
2072746 2072771
2072746 2076019
2072089 2072771
2076016 2076019
2074661 2074601
2075038 2074826
2074758 2074721
2077848 2077964
2071773 2071780
2071773 2071849
2071780 2071849
2075930 2075791
2075791 2075498
