2070851 2067370
2067370 2067384
2067370 2068672
2067370 2069427
2067370 2067589
2067370 2067662
2067370 2071202
2067370 2068361
2067370 2069096
2067370 2067762
2067370 2069432
2067370 2071196
2067370 2069184
2067370 2071205
2067370 2069046
2067370 2067550
2067370 2069844
2067370 2067465
2067370 2068064
2067370 2068415
2067370 2067672
2067370 2068297
2067370 2069856
2067370 2068279
2067370 2070086
2069427 2069445
2069427 2069432
2069445 2069432
2067589 2067550
2067589 2067662
2067589 2067672
2067662 2067672
2071202 2071205
2071202 2071196
2068361 2068064
2068361 2068415
2068361 2068297
2068361 2068279
2069096 2067672
2069096 2069046
2067762 2069844
2067762 2069856
2071196 2071205
2069184 2067465
2069046 2067465
2069046 2067672
2069844 2067465
2069844 2068064
2069844 2069856
2067465 2069856
2067465 2067672
2068064 2068415
2068064 2068297
2068064 2069856
2068064 2068279
2068415 2068297
2068415 2068279
2068297 2068279
