2011590 2006859
2011590 2007843
2011590 2006127
2006859 2007025
2006859 2007358
2006859 2006965
2006859 2007843
2006859 2006877
2006859 2007068
2006859 2006921
2006859 2006127
2006859 2006856
2006859 2006766
2006859 2006954
2006859 2006846
2006859 2006935
2006859 2006940
2007843 2011763
2007843 2007025
2007843 2007358
2007843 2006127
2007843 2006766
2007843 2006954
2007843 2006846
2007843 2006940
2007843 2007068
2007843 2006921
2007843 2006856
2006127 2006647
2006127 2011763
2006127 2007025
2006127 2007358
2006127 2005861
2006127 2005986
2006127 2011125
2006127 2006611
2006127 2006965
2006127 2006877
2006127 2007068
2006127 2006921
2006127 2006766
2006127 2006954
2006127 2006846
2006127 2011006
2006127 2006940
2006127 2006667
2006127 2006856
2006127 2006130
2006127 2010973
2006127 2006935
2006127 2006152
2011973 2005986
2005986 2005861
2005986 2011006
2005986 2006130
2005986 2010973
2006647 2006611
2006647 2006940
2006940 2007025
2006940 2007358
2006940 2006965
2006940 2006877
2006940 2007068
2006940 2006921
2006940 2006856
2006940 2006766
2006940 2006954
2006940 2006935
2006940 2006846
2011763 2006856
2006856 2007025
2006856 2007358
2006856 2006965
2006856 2007068
2006856 2006921
2006856 2006954
2006856 2006846
2006856 2006766
2008626 2008601
2008626 2006130
2008626 2008585
2008626 2008590
2008626 2008594
2008601 2006130
2008601 2008585
2008601 2008590
2008601 2008594
2006130 2008511
2006130 2006152
2006130 2009785
2006130 2008585
2006130 2008590
2006130 2008594
2008585 2008686
2008585 2008590
2008585 2008594
2008590 2008686
2008590 2008594
2007025 2006766
2007025 2006954
2007025 2007358
2007025 2007068
2007025 2006921
2007025 2006846
2006766 2006965
2006766 2007068
2006766 2006921
2006766 2006954
2006766 2006846
2006954 2007358
2006954 2006965
2006954 2006877
2006954 2007068
2006954 2006921
2006954 2006935
2006954 2006846
2007358 2007068
2007358 2006846
2007358 2006921
2007068 2006846
2007068 2006921
2006921 2006965
2006921 2006877
2006921 2006935
2006921 2006846
2006846 2006965
2006846 2006877
2006846 2011495
2006846 2006935
2005861 2011125
2005861 2006021
2005861 2006667
2005861 2005852
2005861 2005999
2006021 2005852
2006021 2005999
2005852 2006089
2011006 2010973
2006965 2006877
2006965 2006935
2006877 2006935
