1706515 1705545
1706515 1699949
1706515 1705572
1705545 1699949
1705545 1706437
1705545 1706443
1705545 1706384
1705545 1701152
1705545 1700567
1705545 1705572
1705545 1700449
1699949 1705414
1699949 1701979
1699949 1702181
1699949 1703365
1699949 1700893
1699949 1706126
1699949 1705814
1699949 1700938
1699949 1702610
1699949 1701152
1699949 1702333
1699949 1700567
1699949 1705913
1699949 1705965
1699949 1702111
1699949 1702688
1699949 1701606
1699949 1700944
1699949 1700274
1699949 1703679
1699949 1701791
1699949 1701910
1699949 1700025
1699949 1700720
1699949 1702568
1699949 1700457
1699949 1700449
1699949 1700234
1699949 1700161
1699949 1702480
1699949 1706332
1699949 1700935
1699949 1701539
1699949 1701856
1699949 1700536
1699949 1699945
1699949 1705572
1699949 1706074
1699949 1699836
1699949 1702602
1699949 1700467
1699949 1701003
1699949 1701015
1699949 1700710
1699949 1705419
1705572 1703365
1705572 1702568
1700324 1700274
1700324 1700234
1700274 1703365
1700274 1702568
1700274 1700234
1700234 1700567
1700234 1700536
1700234 1700720
1700234 1700710
1705414 1702568
1705414 1705419
1705414 1703365
1705414 1700536
1705414 1700710
1702568 1703365
1702568 1700536
1702568 1700710
1702568 1705419
1705419 1703365
1705419 1700536
1705419 1700710
1703365 1705814
1703365 1700567
1703365 1705913
1703365 1700536
1703365 1705965
1703365 1700710
1700536 1700567
1700536 1701015
1700536 1700710
1700710 1700720
1701979 1701910
1701910 1701152
1701910 1699836
1702181 1700457
1700457 1699836
1700457 1700467
1700457 1700449
1705814 1700567
1705814 1705913
1705814 1705965
1700567 1706437
1700567 1706443
1700567 1706384
1700567 1704242
1700567 1701152
1700567 1705913
1700567 1705965
1700567 1700449
1705913 1705965
1705965 1701152
1705965 1699836
1705965 1705975
1706437 1706443
1706437 1706384
1706437 1701152
1706437 1700449
1706443 1706384
1706443 1701152
1706443 1700449
1706384 1701152
1706384 1700449
1701152 1701330
1701152 1706074
1701152 1699836
1701152 1703815
1701152 1705975
1701152 1700449
1700449 1706332
1700449 1706616
1700449 1699836
1700449 1706605
1706126 1701015
1706126 1706074
1706126 1699836
1701015 1706074
1701015 1699836
1701015 1701003
1706074 1699836
1699836 1706616
1699836 1701330
1699836 1699844
1699836 1706605
1699836 1703815
1699836 1701003
1699836 1705975
1700938 1700944
1700938 1700935
1702610 1702602
1700944 1700935
1701791 1700025
1700025 1701539
1706332 1706335
1706616 1706605
