1651876 1649997
1651876 1650008
1649997 1649549
1649997 1649428
1649997 1652103
1649997 1651164
1649997 1655511
1649997 1649406
1649997 1650066
1649997 1650008
1650008 1649549
1650008 1652103
1650008 1654151
1650008 1649780
1650008 1651629
1650008 1649601
1650008 1649406
1650008 1650066
1650008 1649838
1650008 1649656
1650008 1654134
1649549 1649780
1649549 1651164
1649549 1649552
1649549 1650066
1649549 1649635
1649549 1649590
1649549 1649601
1649549 1649581
1649549 1649838
1649549 1649656
1649780 1649838
1649780 1649656
1651164 1650066
1650066 1649601
1650066 1649406
1650066 1651629
1650066 1649656
1649635 1649656
1649635 1649590
1649635 1649601
1649635 1649581
1649590 1649601
1649590 1649656
1649590 1649581
1649601 1649656
1649601 1649581
1649581 1649656
1649428 1649406
1649428 1649412
1649406 1649412
1654151 1654134
1651629 1651621
