1642945 1641622
1642945 1642476
1641622 1645363
1641622 1646520
1641622 1646398
1641622 1641659
1641622 1645090
1641622 1648662
1641622 1644973
1641622 1643007
1641622 1647625
1641622 1647797
1641622 1643235
1641622 1648064
1641622 1641699
1641622 1645665
1641622 1643701
1641622 1642621
1641622 1641787
1641622 1641990
1641622 1643263
1641622 1645308
1641622 1643214
1641622 1645168
1641622 1644918
1641622 1641997
1641622 1644673
1641622 1642476
1641622 1648873
1641622 1646388
1641622 1642278
1641622 1642416
1642476 1642808
1642476 1646520
1642476 1646398
1642476 1647042
1642476 1643765
1642476 1645678
1642476 1647047
1642476 1642750
1642476 1643235
1642476 1648064
1642476 1642717
1642476 1642706
1642476 1645906
1642476 1644619
1642476 1642621
1642476 1641990
1642476 1643263
1642476 1644271
1642476 1644295
1642476 1644591
1642476 1646388
1642476 1642416
1642808 1647042
1642808 1643765
1642808 1647047
1642808 1642750
1642808 1644619
1642808 1646964
1642808 1645678
1642808 1646960
1642808 1642717
1642808 1642706
1642808 1644591
1647042 1647047
1642750 1642717
1642750 1642706
1642750 1644619
1642750 1644591
1644619 1644591
1646964 1646960
1642717 1642706
1642706 1645363
1642706 1645989
1642706 1641397
1642706 1649131
1642706 1648751
1642706 1649190
1642706 1644271
1642706 1646903
1642706 1647242
1642706 1645148
1642706 1647113
1642706 1646922
1642706 1646844
1642706 1645906
1642706 1644295
1641484 1641426
1641484 1641544
1641484 1641397
1641484 1641355
1641484 1641423
1641426 1641397
1641426 1641355
1641426 1641423
1641426 1641544
1641426 1641400
1641544 1641397
1641544 1641355
1641544 1641423
1641397 1645363
1641397 1647242
1641397 1641400
1641397 1641355
1641397 1645148
1641397 1641423
1641397 1644136
1641355 1641423
1641355 1641400
1641355 1644136
1641423 1641400
1645363 1647625
1645363 1645665
1645363 1645148
1645363 1645168
1645363 1641997
1645363 1647242
1645363 1641990
1647625 1641990
1645665 1641990
1645665 1645168
1645148 1645989
1645148 1649131
1645148 1648715
1645148 1648751
1645148 1649190
1645148 1646844
1645148 1646903
1645148 1647242
1645148 1646922
1645168 1645090
1645168 1641990
1645168 1645308
1645168 1642416
1641997 1641990
1641997 1642416
1641997 1642122
1641990 1648573
1641990 1646520
1641990 1646398
1641990 1645090
1641990 1649109
1641990 1644973
1641990 1648930
1641990 1643235
1641990 1644673
1641990 1642820
1641990 1643701
1641990 1642122
1641990 1643263
1641990 1648849
1641990 1645308
1641990 1646388
1641990 1644918
1641990 1648237
1641990 1642416
1648573 1648930
1646520 1643263
1643263 1643235
1643263 1643701
1643263 1642416
1646398 1646388
1641659 1641699
1645090 1643235
1645090 1645308
1645090 1642416
1643235 1644673
1643235 1643701
1643235 1642416
1645308 1642416
1642416 1643007
1642416 1643092
1642416 1643098
1642416 1642820
1642416 1643701
1642416 1643214
1644973 1644918
1643092 1643098
1648715 1646844
1646844 1646903
1646844 1646922
1643701 1643695
1642122 1648849
1646903 1646922
