1605250 1603653
1605250 1603980
1605250 1604487
1605250 1605261
1605250 1603888
1603653 1605794
1603653 1603980
1603653 1604113
1603653 1603888
1603653 1606360
1603653 1604076
1603653 1604634
1603653 1605652
1603653 1604487
1603653 1604736
1603653 1605261
1603653 1603664
1603653 1606194
1603980 1604076
1603980 1604487
1603980 1605261
1603980 1603888
1603980 1604736
1603980 1603664
1603980 1606194
1604487 1606360
1604487 1604076
1604487 1605261
1604487 1604113
1604487 1603888
1605261 1606360
1605261 1604113
1605261 1603888
1603888 1605794
1603888 1606360
1603888 1604076
1603888 1604634
1603888 1605652
1603888 1604113
1603888 1603664
1605794 1604634
1605794 1605652
1605794 1604113
1604634 1605652
1604634 1604113
1605652 1604113
1604113 1606360
1604113 1604076
1604113 1604736
1604113 1603664
1604076 1603664
1604736 1606194
