1539665 1537157
1537157 1536204
1537157 1540620
1537157 1539804
1537157 1538502
1537157 1536030
1537157 1541303
1537157 1538212
1537157 1537825
1537157 1539962
1537157 1536062
1537157 1541891
1537157 1541276
1537157 1541859
1537157 1536018
1537157 1537618
1537157 1539986
1537157 1540548
1537157 1536054
1537157 1539235
1537157 1537370
1537157 1540709
1537157 1536089
1537157 1541029
1537157 1535932
1537157 1539429
1537157 1541592
1537157 1538135
1537157 1539439
1537157 1539189
1537157 1536866
1537157 1538773
1537157 1540600
1536204 1536054
1536204 1535932
1536204 1536866
1536204 1539235
1536204 1538135
1536204 1539189
1536204 1538773
1536054 1540620
1536054 1538502
1536054 1536030
1536054 1539962
1536054 1536062
1536054 1539986
1536054 1540548
1536054 1541891
1536054 1536614
1536054 1537370
1536054 1536142
1536054 1541859
1536054 1539189
1536054 1536866
1536054 1539235
1536054 1540709
1536054 1536089
1536054 1541029
1536054 1535932
1536054 1541592
1536054 1538135
1536054 1536018
1536054 1538773
1536054 1536033
1535932 1540620
1535932 1538030
1535932 1538502
1535932 1536030
1535932 1541303
1535932 1538212
1535932 1537825
1535932 1539962
1535932 1536062
1535932 1536413
1535932 1539986
1535932 1541891
1535932 1536614
1535932 1537370
1535932 1541276
1535932 1540709
1535932 1536089
1535932 1538662
1535932 1536142
1535932 1541859
1535932 1539189
1535932 1535986
1535932 1538034
1535932 1536866
1535932 1538773
1535932 1537618
1535932 1539429
1535932 1541592
1535932 1538135
1535932 1539439
1535932 1535926
1535932 1536018
1535932 1540600
1536866 1536062
1536866 1540548
1536866 1537370
1536866 1541276
1536866 1540709
1536866 1536855
1536866 1541029
1536866 1539429
1536866 1538135
1536866 1539439
1536866 1539189
1536866 1536018
1536866 1538773
1539235 1538773
1539235 1538135
1539235 1539189
1538135 1540620
1538135 1538132
1538135 1538030
1538135 1538144
1538135 1538502
1538135 1536030
1538135 1541303
1538135 1538212
1538135 1539962
1538135 1536062
1538135 1539986
1538135 1541891
1538135 1537370
1538135 1541276
1538135 1540709
1538135 1536089
1538135 1538662
1538135 1539429
1538135 1541592
1538135 1536142
1538135 1541859
1538135 1538783
1538135 1539439
1538135 1539189
1538135 1538773
1538135 1536033
1538135 1540600
1539189 1540620
1539189 1541303
1539189 1537370
1539189 1540709
1539189 1539429
1539189 1539439
1539189 1540600
1539189 1538773
1538773 1540620
1538773 1539804
1538773 1538502
1538773 1538212
1538773 1536062
1538773 1540548
1538773 1541891
1538773 1537370
1538773 1540709
1538773 1536089
1538773 1541029
1538773 1539429
1538773 1541592
1538773 1536142
1538773 1541859
1538773 1538783
1538773 1539439
1538773 1536033
1540620 1536062
1540620 1541891
1540620 1541276
1540620 1541859
1540620 1538502
1540620 1541303
1540620 1537370
1540620 1540709
1540620 1536089
1540620 1541592
1540620 1540600
1536062 1538502
1536062 1536030
1536062 1541891
1536062 1540548
1536062 1537370
1536062 1540709
1536062 1536089
1536062 1541029
1536062 1541592
1536062 1541859
1536062 1536018
1536062 1536033
1541891 1538502
1541891 1537370
1541891 1540709
1541891 1536089
1541891 1541592
1541891 1541859
1541276 1540709
1541859 1538502
1541859 1537370
1541859 1540709
1541859 1536089
1541859 1541592
1538502 1540709
1538502 1536089
1538502 1537370
1538502 1541592
1541303 1540709
1537370 1536030
1537370 1538212
1537370 1539962
1537370 1539986
1537370 1540709
1537370 1536089
1537370 1541592
1537370 1536018
1540709 1536089
1540709 1541592
1540709 1540600
1536089 1536142
1536089 1541592
1539804 1538212
1538212 1536030
1538132 1538144
1538030 1538034
1536030 1536614
1536030 1536033
1536030 1539962
1536030 1539986
1536030 1536018
1536614 1536018
1536033 1538783
1536033 1536018
1539962 1539986
1539962 1540548
1539986 1540548
1540548 1541029
1539429 1539439
1535986 1535926
