1500641 1497863
1500641 1500279
1500641 1500645
1500641 1502185
1500641 1497928
1500641 1500482
1500641 1499162
1497863 1500100
1497863 1497871
1497863 1500645
1497863 1504002
1497863 1500526
1497863 1500196
1497863 1498442
1497863 1498405
1497863 1500486
1497863 1504944
1497863 1501888
1497863 1499321
1497863 1500054
1497863 1501407
1497863 1499162
1497863 1497928
1497863 1504836
1497863 1499325
1497863 1501804
1497863 1499187
1497863 1501881
1497863 1498702
1497863 1501254
1497863 1497885
1497863 1499245
1497863 1497866
1500279 1501804
1500279 1499187
1500279 1504778
1500279 1504750
1500279 1499154
1500279 1504146
1500279 1500486
1500279 1500781
1500279 1500054
1500279 1498702
1500279 1499162
1500279 1497928
1500279 1504770
1500279 1497866
1500279 1500645
1500279 1504002
1500279 1500482
1500279 1502185
1500279 1501881
1500279 1501407
1500645 1499932
1500645 1502055
1500645 1501804
1500645 1499187
1500645 1498702
1500645 1499162
1500645 1497928
1500645 1501881
1500645 1501407
1502185 1499162
1497928 1500488
1497928 1500100
1497928 1499932
1497928 1497871
1497928 1504836
1497928 1501714
1497928 1504002
1497928 1501188
1497928 1499325
1497928 1500526
1497928 1498472
1497928 1500196
1497928 1500482
1497928 1501804
1497928 1501990
1497928 1498442
1497928 1499158
1497928 1499187
1497928 1499537
1497928 1504778
1497928 1504750
1497928 1498405
1497928 1499154
1497928 1504146
1497928 1500486
1497928 1498692
1497928 1504944
1497928 1501888
1497928 1499321
1497928 1498529
1497928 1498913
1497928 1501799
1497928 1497931
1497928 1501881
1497928 1500054
1497928 1498702
1497928 1502938
1497928 1501407
1497928 1499162
1497928 1501254
1497928 1504770
1497928 1499245
1497928 1497885
1497928 1498851
1497928 1500029
1497928 1497866
1500482 1500488
1500482 1499932
1500482 1504002
1500482 1499154
1500482 1500486
1500482 1501881
1500482 1497866
1500482 1499187
1500482 1498702
1500482 1501407
1499162 1504836
1499162 1501804
1499162 1499158
1499162 1499154
1499162 1501881
1499162 1500054
1499162 1498702
1499162 1500029
1500488 1497866
1500488 1499932
1500488 1500486
1497866 1500100
1497866 1499932
1497866 1497871
1497866 1498222
1497866 1501188
1497866 1499325
1497866 1500526
1497866 1500196
1497866 1498442
1497866 1499158
1497866 1499187
1497866 1498405
1497866 1500486
1497866 1503283
1497866 1499321
1497866 1498913
1497866 1498702
1497866 1502938
1497866 1501254
1497866 1497885
1497866 1502299
1497866 1499245
1499932 1500526
1499932 1499154
1499932 1500486
1499932 1499187
1499932 1498913
1499932 1498702
1500486 1504002
1500486 1499187
1500486 1504778
1500486 1504750
1500486 1499154
1500486 1504146
1500486 1504944
1500486 1501881
1500486 1500054
1500486 1504770
1500486 1498702
1500486 1501407
1500100 1500526
1500100 1500781
1500100 1499187
1500100 1498702
1500526 1498913
1500781 1501804
1500781 1504146
1500781 1501881
1499187 1504002
1499187 1501804
1499187 1504778
1499187 1504750
1499187 1499154
1499187 1504146
1499187 1501888
1499187 1501881
1499187 1500054
1499187 1501407
1499187 1504770
1499187 1498702
1498702 1504002
1498702 1501804
1498702 1499158
1498702 1499154
1498702 1498692
1498702 1501888
1498702 1501881
1498702 1500054
1498702 1501407
1498702 1500029
1504002 1499154
1504002 1501881
1504002 1501407
1504944 1501407
1501888 1501881
1499321 1499325
1499321 1499245
1500054 1504836
1500054 1501804
1500054 1499158
1500054 1504778
1500054 1504750
1500054 1499154
1500054 1504146
1500054 1501407
1500054 1504770
1500054 1500029
1501407 1504778
1501407 1504750
1501407 1499154
1501407 1504146
1501407 1501881
1501407 1504770
1504836 1501804
1499325 1499245
1501804 1502055
1501804 1504146
1501804 1501799
1501804 1501881
1501881 1502055
1501881 1499154
1501254 1502299
1497885 1498222
1504778 1504750
1504778 1504146
1504778 1504770
1504750 1504770
1504750 1504146
1499154 1499158
1499154 1500029
1504146 1504770
1498913 1498529
1502149 1501188
1501188 1503283
1503283 1499158
1498472 1498529
1498529 1498851
1499158 1500029
