1481570 1481047
1481570 1480706
1481570 1480293
1481570 1481561
1481047 1481101
1481047 1482771
1481047 1480181
1481047 1480672
1481047 1485319
1481047 1481007
1481047 1480706
1481047 1481050
1481047 1484080
1481047 1481069
1481047 1485589
1481047 1483377
1481047 1480293
1481047 1484149
1481047 1481119
1481047 1482261
1481047 1481561
1480706 1481101
1480706 1480783
1480706 1481303
1480706 1483061
1480706 1480629
1480706 1482771
1480706 1480557
1480706 1480181
1480706 1482119
1480706 1480672
1480706 1484149
1480706 1481119
1480706 1485319
1480706 1481007
1480706 1480725
1480706 1481335
1480706 1482261
1480706 1481050
1480706 1481069
1480706 1485589
1480706 1483377
1480706 1484080
1480706 1484357
1480706 1481561
1480706 1480293
1480293 1481101
1480293 1480181
1480293 1480672
1480293 1481119
1480293 1481007
1480293 1482261
1480293 1485589
1480293 1481561
1480293 1480232
1481101 1481007
1481101 1481050
1481101 1481069
1481101 1483377
1481101 1480672
1481101 1481119
1481101 1482261
1481007 1480672
1481007 1481119
1481007 1484080
1481007 1482261
1481050 1481119
1481050 1481069
1481069 1481119
1483377 1481119
1480672 1480783
1480672 1481119
1480672 1480725
1482261 1481303
1482261 1483061
1482261 1480629
1481303 1480629
1481303 1481335
1480629 1481335
1483061 1480181
1480181 1480214
1480181 1484357
1480181 1480232
1480557 1480533
1480557 1480232
1480533 1480511
1480533 1480232
1480533 1480539
1480232 1480511
1480232 1480539
1485319 1484080
1480511 1480539
