1348550 1351425
1348550 1348544
1348550 1351221
1348550 1352254
1348550 1348469
1348550 1349496
1348550 1348765
1348550 1353463
1348550 1348639
1348550 1351092
1348550 1349913
1348550 1348957
1348550 1350936
1348550 1349490
1348550 1348556
1348550 1351348
1348550 1350208
1348550 1348605
1348550 1351040
1351425 1351348
1348544 1348639
1348544 1349490
1348544 1348556
1348544 1350208
1348544 1348605
1351221 1348639
1351221 1351092
1351221 1349490
1351221 1349496
1351221 1348765
1351221 1349080
1352254 1348765
1348469 1348639
1348469 1349047
1348469 1349913
1348469 1348957
1348469 1349490
1348469 1349080
1348469 1349496
1348469 1348765
1348469 1353546
1349496 1348639
1349496 1349490
1348765 1348957
1348765 1349490
1348639 1349490
1348639 1348605
1348639 1349047
1348639 1348556
1348639 1349080
1348639 1350208
1351092 1348556
1351092 1351040
1350936 1348556
1350936 1350908
1349490 1353546
1348556 1348605
1348556 1350908
1348556 1351040
1349047 1349080
