1343094 1343028
1343094 1343255
1343094 1343430
1343094 1343608
1343094 1343082
1343094 1343458
1343094 1345322
1343094 1347054
1343094 1346962
1343094 1346214
1343094 1346992
1343094 1344679
1343028 1343969
1343028 1346478
1343028 1343992
1343028 1342982
1343028 1343255
1343028 1343430
1343028 1344003
1343028 1343670
1343028 1343608
1343028 1343082
1343255 1343992
1343255 1343670
1343255 1343608
1343255 1346962
1343255 1344531
1343255 1345157
1343255 1343430
1343255 1344003
1343255 1343733
1343255 1344377
1343255 1343321
1343255 1343258
1343255 1344101
1343430 1346962
1343430 1343258
1343430 1343458
1343430 1343733
1343430 1344531
1343430 1345157
1343608 1343670
1343608 1343578
1343608 1343611
1343608 1343321
1343608 1345157
1343082 1346478
1343082 1343670
1347054 1346962
1347054 1346992
1346962 1346992
1346962 1345157
1346214 1346217
1343969 1343670
1343670 1346478
1343670 1343992
1346172 1343321
1343321 1344003
1343321 1343733
1343321 1344101
1343321 1345157
1343992 1344003
1343992 1343258
1344003 1343258
1344003 1344101
1343258 1344531
1344377 1344101
1343578 1343611
