1337633 1341339
1337633 1341887
1337633 1340188
1337633 1339901
1337633 1342067
1337633 1341884
1337633 1337496
1337633 1341347
1337633 1339347
1337633 1337548
1337633 1337470
1337633 1338609
1337633 1338894
1337633 1338290
1337633 1337682
1337633 1337467
1337633 1337663
1337633 1339417
1337633 1338466
1337633 1337767
1337633 1340172
1337633 1342506
1337633 1337596
1337633 1339390
1337633 1339021
1337633 1337545
1337633 1337819
1341339 1341347
1341887 1341884
1341887 1338466
1340188 1337467
1340188 1342067
1340188 1341068
1340188 1337470
1340188 1339347
1340188 1337548
1340188 1340172
1340188 1337545
1339901 1337663
1342067 1337467
1342067 1339347
1342067 1340172
1341884 1338466
1337496 1339509
1337496 1337682
1337496 1337467
1337496 1337663
1337496 1337470
1337496 1337574
1337496 1337545
1339347 1337467
1339347 1337663
1339347 1339417
1339347 1340172
1339347 1339390
1339347 1337548
1339347 1340096
1339347 1337545
1337548 1337899
1337548 1340172
1337548 1337545
1337548 1337767
1337548 1337819
1337470 1339509
1337470 1337682
1337470 1337467
1337470 1341068
1338609 1338466
1338894 1339417
1338894 1337596
1337682 1337663
1337682 1339021
1337682 1337545
1337467 1339509
1337467 1340172
1337467 1337545
1337663 1339417
1337663 1339390
1337663 1337545
1339417 1339390
1339417 1340096
1339417 1337596
1337767 1337819
1340172 1342506
1339390 1340096
