23 1 50
1 23 49
23 28 23
28 23 21
30 1 17
1 30 16
1 28 14
28 1 14
30 23 11
29 30 10
23 30 10
30 29 9
23 21 8
1 63 8
58 1 7
1 58 7
63 1 7
21 23 6
45 1 6
23 34 5
34 23 5
1 45 5
1 37 4
1 50 4
8 9 3
9 8 3
1 18 3
18 1 3
30 34 3
34 30 3
37 1 3
50 1 3
30 63 3
63 30 3
20 21 2
28 30 2
40 37 2
18 30 2
30 18 2
57 30 2
15 18 2
1 15 2
15 30 2
1 2 1
2 3 1
3 4 1
4 3 1
3 5 1
5 6 1
6 7 1
7 1 1
1 8 1
8 10 1
10 11 1
11 12 1
12 8 1
8 13 1
13 9 1
9 14 1
14 15 1
15 16 1
16 17 1
17 1 1
18 8 1
8 19 1
19 20 1
21 20 1
21 22 1
22 23 1
21 24 1
24 23 1
21 18 1
18 25 1
25 1 1
1 26 1
26 27 1
27 23 1
28 29 1
30 31 1
31 30 1
23 32 1
32 1 1
29 1 1
23 33 1
33 23 1
34 1 1
1 35 1
35 1 1
1 34 1
1 36 1
36 1 1
37 23 1
1 38 1
38 39 1
39 40 1
37 40 1
37 41 1
41 1 1
1 42 1
42 43 1
43 44 1
44 1 1
30 45 1
23 18 1
1 40 1
40 28 1
28 46 1
46 23 1
18 23 1
28 18 1
30 28 1
1 29 1
30 47 1
47 30 1
30 48 1
48 49 1
49 28 1
50 40 1
40 51 1
51 52 1
52 30 1
30 53 1
53 15 1
15 1 1
23 52 1
52 1 1
1 54 1
54 23 1
28 55 1
55 56 1
56 28 1
30 57 1
30 58 1
58 28 1
28 59 1
59 30 1
23 15 1
15 23 1
30 60 1
60 30 1
30 61 1
61 62 1
62 1 1
30 64 1
64 30 1
63 65 1
65 66 1
66 67 1
67 66 1
66 23 1
23 68 1
68 15 1
18 15 1
18 69 1
69 57 1
30 70 1
70 71 1
71 30 1
30 72 1
72 30 1
23 16 1
16 1 1
1 73 1
73 74 1
74 23 1
