1303777 1302174
1303777 1300558
1303777 1303790
1303777 1303786
1303777 1301058
1303777 1303780
1303777 1303774
1303777 1301065
1302174 1301281
1302174 1301061
1302174 1300504
1302174 1303790
1302174 1300356
1302174 1303786
1302174 1301058
1302174 1303780
1302174 1300448
1302174 1301098
1302174 1303774
1302174 1301065
1302174 1300558
1300558 1301281
1300558 1300504
1300558 1302532
1300558 1300294
1300558 1303790
1300558 1300356
1300558 1303786
1300558 1300768
1300558 1303780
1300558 1303774
1300558 1300448
1300558 1301098
1303790 1303780
1303790 1301065
1303790 1303786
1303790 1301058
1303790 1303774
1303786 1303780
1303786 1301065
1303786 1301058
1303786 1303774
1301058 1301281
1301058 1301972
1301058 1301061
1301058 1300414
1301058 1300356
1301058 1303780
1301058 1303774
1301058 1300448
1301058 1301098
1301058 1301065
1303780 1303774
1303780 1301065
1303774 1301065
1301065 1301061
1301065 1300414
1301065 1300356
1301065 1301098
1301281 1302899
1301281 1300504
1301281 1302890
1301281 1302455
1301281 1302858
1301281 1300356
1301281 1300768
1301281 1300448
1301281 1301098
1302899 1302890
1302899 1302858
1302899 1300448
1300504 1302706
1300504 1300294
1300504 1300356
1300504 1300768
1300504 1303016
1300504 1302302
1300504 1302858
1300504 1300448
1300504 1301098
1302890 1302858
1302890 1300448
1302455 1300448
1302858 1303016
1302858 1300448
1300356 1301972
1300356 1301061
1300356 1300414
1300356 1302917
1300356 1300294
1300356 1300965
1300356 1303016
1300356 1300448
1300356 1301156
1300356 1301485
1300356 1300768
1300356 1302943
1300356 1300967
1300356 1301098
1300768 1301061
1300768 1301098
1300768 1300448
1300448 1301972
1300448 1300414
1300448 1301084
1300448 1301485
1300448 1303016
1300448 1301098
1301098 1301061
1300299 1300294
1302706 1302302
1302302 1302917
1302302 1302923
1301061 1301485
1302917 1302923
1302917 1302943
1300965 1300967
