1251229 1250147
1251229 1250835
1251229 1251172
1251229 1250840
1250147 1250415
1250147 1252911
1250147 1251031
1250147 1252236
1250147 1251974
1250147 1252360
1250147 1250835
1250147 1253975
1250147 1257709
1250147 1253201
1250147 1256818
1250147 1257060
1250147 1251464
1250147 1253922
1250147 1250282
1250147 1251172
1250147 1252142
1250147 1250127
1250147 1250601
1250147 1252573
1250147 1250412
1250147 1251878
1250147 1250825
1250147 1251116
1250147 1251069
1250147 1252005
1250147 1252077
1250147 1255276
1250147 1254736
1250147 1252120
1250147 1250343
1250147 1252725
1250147 1251610
1250147 1251429
1250147 1250814
1250147 1250840
1250147 1255490
1250835 1251031
1250835 1251172
1250835 1250127
1250835 1250343
1250835 1250814
1250835 1250825
1250835 1250840
1250835 1255490
1251172 1250840
1250840 1251031
1250840 1250127
1250840 1250343
1250840 1250814
1250840 1250825
1250840 1255490
1250415 1250412
1252911 1253201
1254965 1253922
1253922 1253975
1251031 1252475
1251031 1257709
1251031 1250127
1251031 1250343
1251031 1250814
1251031 1250825
1251031 1255490
1251031 1252077
1252475 1252077
1257709 1255490
1250127 1251878
1250127 1251116
1250127 1251069
1250127 1250343
1250127 1250814
1250127 1250825
1250343 1251974
1250343 1251878
1250343 1251116
1250343 1251069
1250343 1252005
1250343 1251610
1250343 1250814
1250343 1250825
1250814 1250825
1255490 1252077
1255490 1252005
1251974 1252005
1252005 1255276
1256818 1257060
1251464 1251429
1251429 1251362
1252142 1252120
1252573 1252725
1251878 1251116
1251878 1251069
1251116 1251069
