1241446 1238794
1238794 1238957
1238794 1241971
1238794 1241752
1238794 1238820
1238794 1242411
1238794 1239859
1238794 1238739
1238794 1238779
1238794 1240480
1238794 1240239
1238794 1238783
1238794 1240009
1238794 1242287
1238794 1239497
1238794 1240019
1238794 1240181
1238794 1240343
1238794 1240804
1238794 1239630
1238794 1238841
1238794 1238811
1238794 1240273
1238794 1240040
1238794 1239565
1238794 1239593
1238794 1241052
1238794 1241661
1238794 1238709
1238794 1238788
1238794 1239012
1238957 1238820
1238957 1238811
1238957 1238783
1238957 1242287
1238957 1239565
1238957 1242351
1238957 1238779
1238957 1240804
1238957 1239630
1238820 1241971
1238820 1238779
1238820 1238811
1238820 1242287
1238820 1238788
1238820 1239630
1238820 1238783
1238820 1239497
1238811 1241752
1238811 1239859
1238811 1238779
1238811 1240343
1238811 1239630
1238811 1240480
1238811 1238783
1238811 1238788
1238811 1239497
1238811 1241661
1238783 1238779
1238783 1239630
1238783 1238841
1238783 1239565
1238783 1238788
1238779 1241971
1238779 1241752
1238779 1238739
1238779 1241657
1238779 1239497
1238779 1238788
1238779 1240804
1238779 1241661
1238779 1238709
1239630 1242436
1239630 1240181
1239630 1240239
1241971 1239497
1241752 1242436
1241752 1241661
1242436 1240738
1242436 1242442
1241661 1241657
1239859 1239948
1239859 1240480
1239859 1239865
1239859 1240040
1239859 1239879
1239859 1239908
1239948 1239865
1239948 1239879
1239948 1239908
1239865 1239879
1239865 1239908
1240040 1240009
1240040 1240019
1239879 1239908
1239908 1241052
1240738 1238841
1238739 1238709
1238739 1239012
1238709 1239012
1239012 1238841
1239012 1240273
1240239 1240181
1240009 1240019
1240273 1239593
