1217598 1217343
1217598 1217363
1217598 1217317
1217343 1217321
1217343 1217363
1217343 1222436
1217343 1217340
1217343 1220502
1217343 1217317
1217343 1217333
1217363 1217321
1217363 1217799
1217363 1217855
1217363 1217340
1217363 1217317
1217363 1217333
1217317 1217579
1217317 1217321
1217317 1222637
1217317 1217575
1217317 1216697
1217317 1216777
1217317 1216766
1217317 1217799
1217317 1219917
1217317 1216731
1217317 1217855
1217317 1217340
1217317 1220502
1217317 1217333
1217579 1217575
1217579 1216766
1217575 1216766
1216766 1222637
1216766 1216697
1216766 1216777
1216766 1217799
1216766 1216731
1216766 1217855
1216766 1216873
1216766 1217333
1216766 1219917
1217321 1217340
1217321 1217333
1217340 1217333
1217333 1219453
1217333 1216777
1217333 1216731
1217333 1217855
1217333 1222436
1217333 1220502
1219453 1220502
1220502 1216697
1220502 1217799
1220502 1222436
1222637 1216777
1222637 1217799
1222637 1217855
1216777 1216697
1216777 1219917
1216777 1216731
1216777 1217855
1216777 1216873
1216777 1217799
1216777 1217099
1216777 1217084
1217799 1216697
1217799 1216731
1217799 1217855
1217855 1216697
1217855 1219917
1217855 1216731
1216697 1216873
1216697 1219917
1216697 1216731
1216873 1216731
1219917 1216731
1216731 1217099
