1204935 1202600
1204935 1202577
1204935 1202804
1202600 1202577
1202600 1201777
1202600 1202804
1202577 1201777
1202577 1202010
1202577 1201522
1202577 1201686
1202577 1203915
1202804 1201522
1202804 1202010
1202804 1202277
1201681 1204497
1201681 1202091
1201681 1203915
1201681 1202010
1201681 1205985
1201681 1205972
1201681 1201777
1201681 1203563
1201681 1201686
1201681 1205887
1201681 1202006
1201681 1201496
1201681 1205949
1201681 1204792
1204497 1204671
1204497 1204666
1204497 1202006
1204497 1203563
1204497 1202010
1204497 1205985
1204497 1205949
1204497 1205972
1204497 1204792
1202091 1202010
1202091 1202006
1202091 1205887
1203915 1201686
1203915 1202010
1203915 1202006
1202010 1204671
1202010 1201777
1202010 1204666
1202010 1203563
1202010 1201686
1202010 1202157
1202010 1202006
1202010 1201522
1202010 1204792
1202010 1205887
1202010 1205985
1202010 1202120
1202010 1205949
1202010 1205972
1202010 1202277
1205985 1202006
1205985 1205949
1205985 1205972
1205972 1202006
1205972 1205949
1201777 1201522
1201777 1201686
1201777 1201496
1203563 1201588
1203563 1202006
1203563 1201522
1203563 1204792
1201686 1202006
1201686 1201496
1205887 1202006
1202006 1202157
1202006 1204792
1202006 1202120
1202006 1205949
1201496 1201588
1201496 1201522
1201496 1201513
1201522 1201588
1201522 1201513
1204671 1204666
1202277 1201513
1201588 1201513
1202157 1202120
