1098347 1096164
1098347 1097394
1098347 1096133
1096164 1097359
1096164 1097388
1096164 1097394
1096164 1096179
1096164 1096133
1096164 1096147
1096164 1100571
1097394 1097359
1097394 1097388
1097394 1096133
1096133 1100412
1096133 1095626
1096133 1097359
1096133 1097388
1096133 1099036
1096133 1097155
1096133 1096179
1096133 1096614
1096133 1097870
1096133 1095358
1096133 1099258
1096133 1099607
1096133 1096147
1096133 1099635
1096133 1095501
1096133 1100876
1096133 1100571
1098570 1095358
1098570 1095501
1095358 1099036
1095358 1097304
1095358 1097155
1095358 1096614
1095358 1097870
1095358 1096854
1095358 1097947
1095358 1095380
1095358 1096390
1095358 1098947
1095358 1097616
1095358 1098111
1095358 1097031
1095358 1097166
1095358 1095363
1095358 1095501
1095358 1097688
1095358 1098985
1095358 1096792
1095358 1098794
1095358 1098974
1095358 1099258
1095358 1099607
1095358 1099635
1095358 1098654
1095358 1095935
1095358 1095330
1095501 1095504
1095501 1095626
1095501 1099036
1095501 1098842
1095501 1097155
1095501 1096614
1095501 1097870
1095501 1096854
1095501 1097947
1095501 1095519
1095501 1096390
1095501 1099760
1095501 1098947
1095501 1097616
1095501 1098111
1095501 1097031
1095501 1097166
1095501 1097688
1095501 1099899
1095501 1098985
1095501 1096792
1095501 1098794
1095501 1098974
1095501 1098654
1095501 1095935
1095501 1100876
1095504 1095626
1095504 1095519
1095626 1097870
1095626 1100876
1095626 1095519
1097870 1100295
1097870 1099036
1097870 1097155
1097870 1096614
1097870 1097947
1097870 1099258
1097870 1100571
1097870 1098111
1097870 1097166
1097870 1098985
1097870 1098974
1097870 1098947
1097870 1099899
1097870 1100876
1100876 1100571
1097359 1097388
1100295 1097947
1097947 1099036
1097947 1096614
1097947 1097166
1099036 1096614
1099036 1099760
1099036 1099258
1099036 1099899
1096614 1097155
1096614 1097166
1096614 1098947
1096614 1098985
1096614 1098974
1099760 1099899
1099258 1099607
1099258 1099635
1097304 1097155
1097155 1098842
1097155 1097166
1096179 1096147
1098947 1098985
1098947 1098974
1098985 1098974
1096854 1097031
1096854 1096792
1097031 1096792
1100635 1098654
1095380 1095363
1095380 1095330
1097616 1097688
1095363 1095330
1099607 1099635
