1009783 1009986
1009783 1013786
1009783 1010164
1009783 1010696
1009783 1009928
1009783 1009805
1009783 1010153
1009986 1009935
1009986 1013903
1009986 1013304
1009986 1013977
1009986 1013849
1009986 1010375
1009986 1014897
1009986 1013888
1009986 1011589
1009986 1010410
1009986 1010164
1009986 1010696
1009986 1009928
1009986 1010783
1009986 1009837
1009986 1010227
1009986 1012453
1009986 1013854
1009986 1013942
1009986 1010912
1009986 1010432
1009986 1010435
1009986 1013832
1009986 1010216
1009986 1010038
1009986 1010013
1009986 1009805
1009986 1011389
1009986 1009994
1009986 1010153
1009986 1010328
1013786 1009928
1010164 1013977
1010164 1010375
1010164 1010038
1010164 1010153
1010164 1010013
1010164 1009994
1010164 1010912
1010696 1009935
1010696 1010783
1010696 1010227
1010696 1010038
1010696 1010013
1010696 1009805
1010696 1009994
1009928 1009935
1009928 1013903
1009928 1013977
1009928 1013849
1009928 1013888
1009928 1013832
1009928 1010038
1009928 1010013
1009928 1013942
1009928 1011389
1009928 1009994
1009928 1013854
1009805 1013903
1009805 1014062
1009805 1010783
1009805 1010013
1009805 1011389
1009805 1010153
1009805 1010546
1010153 1009935
1010153 1013304
1010153 1013977
1010153 1014897
1010153 1011589
1010153 1010783
1010153 1010216
1010153 1010227
1010153 1010038
1010153 1010013
1010153 1011389
1010153 1009994
1010153 1013217
1010153 1010912
1009935 1013903
1009935 1013977
1009935 1010783
1009935 1010038
1009935 1010013
1009935 1009994
1009935 1013942
1009935 1013849
1009935 1010375
1009935 1014897
1009935 1013888
1009935 1013832
1009935 1010216
1009935 1010227
1009935 1011389
1009935 1013854
1009935 1010328
1013903 1013977
1013903 1010038
1013903 1010013
1013903 1013942
1013903 1013849
1013903 1013888
1013903 1013832
1013903 1011389
1013903 1009994
1013903 1013854
1013977 1010783
1013977 1013849
1013977 1010375
1013977 1014897
1013977 1013888
1013977 1013832
1013977 1010227
1013977 1010038
1013977 1010013
1013977 1011389
1013977 1009994
1013977 1013854
1013977 1013942
1010783 1014897
1010783 1009994
1010783 1010227
1010783 1010038
1010783 1010013
1010038 1013849
1010038 1013888
1010038 1011589
1010038 1016095
1010038 1013832
1010038 1009837
1010038 1010227
1010038 1010013
1010038 1009994
1010038 1011389
1010038 1013854
1010038 1013942
1010038 1010912
1010013 1013849
1010013 1014897
1010013 1013888
1010013 1016095
1010013 1013832
1010013 1009837
1010013 1010227
1010013 1009994
1010013 1013942
1010013 1010912
1010013 1011389
1010013 1013854
1009994 1013849
1009994 1014897
1009994 1013888
1009994 1011589
1009994 1013832
1009994 1009837
1009994 1010227
1009994 1011389
1009994 1013854
1009994 1013942
1009994 1010912
1013942 1013849
1013942 1013888
1013942 1013832
1013942 1011389
1013942 1013854
1013849 1013888
1013849 1011389
1013849 1013854
1013849 1013832
1010375 1010227
1010375 1010216
1010375 1010328
1014897 1010227
1013888 1013832
1013888 1011389
1013888 1013854
1013832 1011389
1013832 1013854
1010216 1010227
1010216 1010328
1010227 1011589
1010227 1010410
1010227 1016095
1010227 1010435
1010227 1011389
1010227 1010328
1011389 1013304
1011389 1011589
1011389 1014062
1011389 1013854
1014057 1014062
1011589 1013217
1010410 1010416
1010410 1010435
1010435 1010432
1009837 1009840
