982693 978663
982693 978680
978663 980030
978663 978707
978663 978680
978663 978879
978663 978225
978680 980030
978680 978879
978680 977645
978680 978707
980030 978879
980030 978707
978879 978225
978879 978707
978707 977648
978707 978135
978225 978164
978225 978217
978225 978135
978030 978033
978030 979276
978030 979439
978030 978043
978030 977645
978030 977648
978030 978934
978030 978000
978030 979199
978030 979205
978030 977985
978030 978276
978030 978003
978033 978043
978033 978000
978033 977985
978033 978003
979276 980929
979276 977645
979276 977648
979276 978934
979276 981269
979276 979439
979276 980948
979276 981217
979276 979199
979276 979205
979276 978043
979276 978276
979439 977645
979439 981553
979439 977648
979439 978934
979439 981269
979439 978043
979439 978135
979439 981217
979439 978643
979439 978276
979439 981214
979439 979461
978043 977645
978043 977648
978043 978000
978043 979199
978043 979205
978043 978276
978043 977985
978043 981338
978043 978003
977645 977870
977645 980929
977645 982890
977645 977702
977645 978934
977645 980042
977645 982103
977645 982729
977645 981968
977645 977699
977645 981643
977645 978627
977645 983168
977645 978420
977645 982953
977645 979461
977645 981553
977645 977648
977645 979199
977645 979205
977645 978276
977645 981338
977645 983387
977645 980948
977648 977870
977648 980929
977648 978456
977648 982890
977648 981553
977648 977702
977648 979205
977648 982870
977648 981968
977648 979622
977648 977699
977648 983168
977648 978420
977648 982953
977648 980948
977648 979798
977648 979625
977648 979461
977648 978135
977648 978934
977648 979199
977648 978276
977648 978627
977648 983387
978934 980929
978934 982890
978934 981269
978934 981968
978934 981449
978934 980948
978934 981455
978934 981217
978934 979205
978934 978276
978934 979622
978934 978627
978934 982953
978934 979798
978934 979625
978000 978003
978000 977985
979199 979205
979199 978276
979205 979798
979205 978276
979205 979622
979205 978627
979205 979625
977985 978003
978276 980929
978276 978272
978276 982890
978276 981553
978276 982103
978276 982729
978276 981968
978276 979622
978276 977954
978276 982953
978276 980948
978276 979798
978276 979625
978276 982819
978276 982810
978276 978627
980929 980948
978164 978217
978164 978135
978217 978135
978135 982870
978456 977702
977702 978508
977702 981553
977702 978627
977702 983168
977702 978420
977702 977699
977702 979461
982890 981968
982890 982953
982890 978627
980042 981643
982103 982819
982103 982810
982729 981553
981968 978627
981968 982953
978627 979622
978627 983168
978627 982953
978627 979798
978627 979625
979461 981553
981553 983387
979622 979798
979622 979625
979798 979625
981269 981217
981449 981455
981217 981214
982819 982810
