3 2 35
2 3 32
8 17 32
2 8 25
16 17 25
17 8 25
10 8 25
17 16 23
17 2 20
8 10 19
18 8 19
8 18 18
13 8 17
8 2 16
2 17 16
8 6 15
8 13 14
17 41 14
41 17 14
16 18 13
6 10 12
2 13 11
18 16 11
61 8 11
8 61 11
13 2 10
8 16 10
8 19 10
2 9 9
11 12 9
16 8 9
6 8 9
5 2 8
2 5 8
2 6 8
6 13 8
2 16 8
17 18 8
18 17 8
19 2 8
19 8 8
34 8 8
9 2 7
13 6 7
2 19 7
16 2 6
18 2 6
10 2 5
2 10 5
12 13 5
10 6 5
2 18 5
8 34 5
6 2 4
10 11 4
12 11 4
13 10 4
13 11 4
6 19 4
3 8 4
8 3 4
19 13 4
13 19 4
2 34 4
4 2 3
11 2 3
12 2 3
10 13 3
9 11 3
11 9 3
9 6 3
6 9 3
8 11 3
19 6 3
8 27 3
18 4 3
3 5 2
9 8 2
11 13 2
2 12 2
11 6 2
22 9 2
6 12 2
5 3 2
19 22 2
22 10 2
12 10 2
8 29 2
34 2 2
18 34 2
35 2 2
4 18 2
17 40 2
40 17 2
6 11 2
8 12 2
2 56 2
10 34 2
1 2 1
2 4 1
2 7 1
7 2 1
2 11 1
13 12 1
13 14 1
14 2 1
9 12 1
12 9 1
2 15 1
15 2 1
12 6 1
13 20 1
20 7 1
7 9 1
9 21 1
21 2 1
6 22 1
9 22 1
9 13 1
8 23 1
23 2 1
5 8 1
8 5 1
17 24 1
24 8 1
2 25 1
25 8 1
8 25 1
25 18 1
12 8 1
11 10 1
10 19 1
16 26 1
26 2 1
27 8 1
27 2 1
27 13 1
2 28 1
28 4 1
29 8 1
29 13 1
17 30 1
30 2 1
8 31 1
31 2 1
2 32 1
32 2 1
16 33 1
33 16 1
34 16 1
34 18 1
2 35 1
34 35 1
35 34 1
34 36 1
36 35 1
2 37 1
37 16 1
17 35 1
35 8 1
4 8 1
2 38 1
38 2 1
8 39 1
39 8 1
41 8 1
8 41 1
19 42 1
42 43 1
43 2 1
10 17 1
17 44 1
44 45 1
45 2 1
2 46 1
46 47 1
47 2 1
2 48 1
48 49 1
49 50 1
50 51 1
51 52 1
52 51 1
51 50 1
50 53 1
53 8 1
8 53 1
53 3 1
13 3 1
11 8 1
2 22 1
22 54 1
54 55 1
55 39 1
39 2 1
56 2 1
56 6 1
8 4 1
8 57 1
57 8 1
8 58 1
58 8 1
8 59 1
59 10 1
8 60 1
60 61 1
61 18 1
17 3 1
