16 23 5
23 16 5
16 4 5
22 10 4
39 16 4
4 16 4
4 11 3
11 12 3
12 4 3
10 22 3
16 39 3
39 23 3
14 16 2
10 16 2
23 39 2
45 22 2
22 45 2
1 2 1
2 3 1
3 4 1
4 5 1
5 6 1
6 7 1
7 8 1
8 7 1
7 9 1
9 10 1
10 4 1
11 4 1
4 12 1
12 11 1
4 13 1
13 14 1
14 15 1
15 14 1
16 14 1
16 17 1
17 18 1
18 9 1
9 16 1
16 19 1
19 20 1
20 21 1
21 22 1
22 16 1
16 12 1
12 16 1
4 24 1
24 10 1
10 25 1
25 10 1
16 26 1
26 10 1
10 27 1
27 28 1
28 7 1
7 4 1
4 10 1
10 29 1
29 22 1
10 30 1
30 31 1
31 10 1
10 32 1
32 33 1
33 34 1
34 35 1
35 36 1
36 18 1
18 37 1
37 38 1
38 39 1
39 40 1
40 39 1
16 41 1
41 42 1
42 39 1
16 43 1
43 16 1
16 10 1
16 22 1
22 23 1
23 44 1
44 39 1
23 45 1
45 28 1
28 39 1
39 28 1
28 45 1
45 46 1
46 47 1
47 39 1
16 48 1
48 49 1
49 16 1
39 50 1
50 51 1
51 52 1
52 53 1
53 16 1
39 10 1
10 28 1
