959426 958802
959426 960979
959426 959411
958802 959848
958802 959411
958802 961122
958802 960261
958802 959782
958802 959944
958802 959766
958802 960979
958802 961181
958802 958805
958802 959086
958802 959093
958802 959254
958802 961707
958802 961544
958802 958917
958802 963844
958802 960494
958802 961444
958802 959238
960979 959411
959848 959782
959848 959766
959782 961544
959782 959766
961122 958917
958917 961181
960261 958805
960261 960494
959944 959254
959944 961544
959944 961444
958805 960494
959086 959093
959254 961707
959254 961544
959254 963844
959254 961444
959254 959238
961707 961544
961707 961444
961544 961444
