923074 923095
923074 923111
923074 923116
923074 922994
923095 922994
923095 923111
923095 923420
923095 923116
923095 923572
923095 923431
923111 926134
923111 922994
923111 928840
923111 928702
923111 925372
923111 923116
923111 923431
923116 922994
923116 926461
923116 925372
923116 923581
923116 923391
923116 923431
923116 923420
923116 925563
923116 924604
923116 926356
923116 923572
923116 924886
922994 929069
922994 929076
922994 923318
922994 928702
922994 925372
922994 922841
922994 923420
922994 928840
922994 923263
922994 925563
922994 922982
922994 923212
922994 923431
927446 923431
923431 924049
923431 924055
923431 926461
923431 927798
923431 925372
923431 923654
923431 923738
923431 925563
923431 923212
923431 927807
923431 924604
923431 926356
923431 925285
923431 926202
923431 923572
923431 923581
923431 923391
923431 923401
923431 923782
923431 926555
923431 924468
923431 924886
923431 923420
924049 924055
929069 929076
928702 928840
928702 925372
925372 928840
922841 922982
923420 926461
923420 923654
923420 923212
923420 923693
923420 924604
923420 926356
923420 928371
923420 928379
923420 923572
923420 923581
923420 923391
923420 923401
923212 923228
923212 923600
923212 923618
926461 924604
926461 926356
924604 926356
924604 926202
926356 928379
926356 928371
927798 927807
923572 923581
923572 923391
923600 923618
923581 923391
923405 923401
923401 923782
928379 928371
926555 924468
