918064 917859
918064 920715
918064 918919
918064 918047
918064 920746
918064 920720
918064 919489
918064 918051
917859 917840
920715 918047
920715 920746
920715 920720
918919 918051
918919 918047
918047 918214
918047 919489
918047 920746
918047 920720
918047 918051
920746 920720
919489 918051
921232 921239
921232 918214
921232 918345
921232 919302
921239 918345
921239 919302
921239 918214
918214 920681
918214 920087
918214 918345
918214 919302
918214 921004
918214 920015
918214 922414
918214 921031
918214 920963
918214 919930
918214 919940
918214 919953
918214 920438
918214 918363
918214 919851
918214 921112
918214 921813
918214 920417
918214 919908
918214 921817
918214 918460
918214 917840
918345 922235
918345 918363
918345 919851
918345 922056
918345 920087
918345 919302
918345 920015
918345 920963
918345 919930
918345 919940
918345 919953
918345 920438
918345 922414
918345 921813
918345 920417
918345 919908
918345 921817
919302 917840
920681 917840
920087 920417
920087 920438
920087 920015
920087 919930
920087 919940
920087 919908
920087 919953
921004 921031
921004 920963
920015 920417
920015 920438
920015 919930
920015 919940
920015 919908
920015 919953
921031 920963
919930 920417
919930 919940
919930 919953
919930 920438
919930 919908
919940 920417
919940 919953
919940 920438
919940 919908
919953 920417
919953 919908
919953 920438
920438 920417
920438 919908
921813 921817
920417 919908
