897200 893772
897200 895044
893772 898044
893772 893868
893772 898595
893772 893795
893772 893067
893772 896380
893772 893913
893772 893973
893772 898550
893772 893688
893772 898020
893772 893848
893772 894006
893772 893072
893772 898112
893772 894036
893772 895278
893772 894380
895044 898595
895044 893067
895044 898775
895044 898550
895044 898554
895044 898857
895044 893072
895044 894380
895044 894998
893868 893913
893868 893688
893868 893848
893868 893795
893868 893067
893868 893072
893913 893795
893913 896380
893913 893973
893913 893688
893913 893848
893688 893795
893688 893973
893688 893072
893688 893848
893848 893795
893848 893973
893848 893072
893848 894036
893067 894465
893067 894104
893067 896320
893067 893973
893067 894619
893067 893103
893067 893326
893067 896784
893067 893107
893067 898775
893067 898857
893067 893072
893067 898112
893067 894380
893067 894998
893072 894465
893072 896380
893072 894104
893072 896320
893072 893973
893072 898775
893072 898857
893072 893103
893072 893326
893072 896784
893072 894380
893072 893107
893072 894998
898595 898554
898595 898550
898554 898550
894465 894104
894465 894380
894104 894380
894380 896380
894380 896320
894380 896845
894380 898112
894380 896784
894380 896830
894380 897450
894380 894998
896320 896784
893973 894036
893103 893107
898775 898857
896845 896830
