886656 886177
886656 884006
886656 883648
886656 888421
886656 886885
886656 884308
886656 884028
886656 883643
886656 883662
886656 884903
886177 883648
886177 883643
886177 883662
886177 890220
886177 888421
886177 886885
886177 884308
886177 884028
886177 884903
884006 885748
884006 883648
884006 884012
884006 890533
884006 889916
884006 889958
884006 884083
884006 884308
884006 884028
884006 883643
883648 887300
883648 888421
883648 886885
883648 884012
883648 889916
883648 884028
883648 884869
883648 883643
883648 890220
883648 886440
883648 884308
883648 887101
883648 889468
883648 887604
883648 883662
883648 891912
883648 884903
883648 887942
883648 883833
888421 888426
888421 883662
888421 886885
888421 884028
888421 883643
886885 884028
886885 883662
886885 884903
886885 883643
884308 885748
884308 885120
884308 884012
884308 889916
884308 884028
884308 889958
884308 883643
884308 883662
884308 884903
884308 890220
884308 887101
884308 889682
884308 887604
884028 885748
884028 884012
884028 889916
884028 889958
884028 883643
884028 884083
884028 883662
883643 887300
883643 886440
883643 884012
883643 890533
883643 889916
883643 887101
883643 889468
883643 887604
883643 884869
883643 883662
883643 890220
883643 891912
883643 884903
883643 887942
883643 883833
883662 891434
883662 891451
883662 891558
883662 891565
883662 892257
883662 883833
884903 887300
884903 886440
884903 889916
884903 887101
884903 889468
884903 887604
884903 890342
884903 884869
884903 887942
884903 890220
885138 885120
885138 885144
885138 885152
885138 887442
885138 887101
885120 885144
885120 885152
885120 887442
885120 889682
885120 890220
885120 887101
885144 887442
885144 885152
885144 887101
885152 887442
885152 887101
887442 887101
887101 887604
887300 887942
885748 884012
884012 889916
884012 884083
884012 889958
889916 889958
888426 891860
891434 891451
891451 891558
891451 891565
891451 891514
891451 891484
891451 891496
891558 891565
891514 891484
891514 891496
891484 891496
