883028 882403
883028 877351
882403 877351
882403 882033
882403 881972
882403 878944
877351 877531
877351 878691
877351 877322
877351 881180
877351 878138
877351 879030
877351 878591
877351 882702
877351 881881
877351 881922
877351 877965
877351 878388
877351 877423
877351 878143
877351 881305
877351 878944
877351 877387
877351 882033
877351 877306
877351 883093
877351 881972
877351 883074
877351 883083
877351 877471
877531 877471
877471 881180
877471 881305
877471 878944
878691 878388
878388 878138
878388 878143
878388 878944
882033 881972
882033 878944
881972 878944
878944 881180
878944 878138
878944 878591
878944 882702
878944 881881
878944 881922
878944 883093
878944 878143
878944 881305
878944 883074
878944 883083
877322 877423
877322 877387
877322 877306
877423 877306
877423 877387
877387 877306
881180 881305
878138 879030
878138 878591
878138 878143
879030 878143
878591 878143
878143 882702
881881 881922
883093 883074
883093 883083
883074 883083
