864847 864915
864847 864853
864915 861002
864915 859064
864915 864853
861002 859064
861002 860993
861002 859121
861002 863945
859064 860993
859064 859853
859064 864771
859064 863541
859064 863530
859064 862943
859064 861723
859064 859121
859064 862932
859064 863453
860993 859121
860993 862932
860993 859853
860993 863541
860993 863530
860993 863453
860993 862943
860993 861723
859121 862932
859121 859853
859121 864771
859121 863541
859121 863530
859121 863453
859121 862943
859121 861723
863541 863453
863541 863530
863530 863453
862943 862932
