839484 839553
839484 838982
839484 839307
839484 838814
839484 839332
839484 839310
839484 839448
839484 839445
839484 839344
839553 838982
839553 839307
839553 838814
839553 839332
839553 839310
839553 839448
839553 839445
839553 839344
838982 839332
838982 839310
838982 839448
838982 842240
838982 842173
838982 839344
838982 839307
838982 839600
838982 838814
838982 839445
839307 838814
839307 839332
839307 839310
839307 839448
839307 839445
839307 839344
838814 843058
838814 844532
838814 840148
838814 839197
838814 843026
838814 839600
838814 839167
838814 839944
838814 840156
838814 839332
838814 842552
838814 839310
838814 839448
838814 842240
838814 842173
838814 844690
838814 842291
838814 839344
838814 843225
838814 838876
838814 839130
838814 840647
838814 844604
838814 844503
838814 839445
838814 845119
839332 839600
839332 839310
839332 839448
839332 839445
839332 839344
839310 844532
839310 843089
839310 839600
839310 839167
839310 843225
839310 844548
839310 844555
839310 844942
839310 840647
839310 844542
839310 842552
839310 844604
839310 839448
839310 842240
839310 842173
839310 844503
839310 839445
839310 839344
839310 840257
839448 839445
839448 839344
839445 839167
839445 840947
839445 840864
839445 842240
839445 842173
839445 844503
839445 839344
839344 839167
839344 840864
839344 844503
839344 844690
843058 843026
844532 844548
844532 844555
844532 844942
844532 844542
844532 844604
844532 844503
844548 844555
844548 844542
844548 844503
844555 844542
844555 844503
844542 844503
844604 842552
844604 845119
844604 844503
840148 840156
842240 842173
839600 839167
839600 843225
839197 839167
839167 843225
839167 839944
842291 842330
