758961 759266
758961 758327
758961 759158
758961 758921
758961 758406
758961 758914
759266 758327
759266 759158
758327 758375
758327 758921
758327 758406
758327 760896
758327 758679
758327 758330
758327 758342
758327 764129
758327 763167
758327 759975
758327 759661
758327 760128
758327 759688
758327 759679
758327 759587
758327 758914
758327 759745
758327 759158
758327 760412
758327 760209
758327 758460
758327 762604
758327 759208
759158 758406
758921 758406
758921 758914
758406 758375
758406 760128
758406 759679
758406 759587
758406 758914
758406 758460
758406 758330
758406 758342
758406 759975
758406 759745
758406 760412
758406 759208
758375 758460
758375 758330
758375 758342
758460 758330
758460 758342
758330 758342
760128 759975
760128 762604
759679 759975
759679 759661
759679 759688
759975 764129
759975 761764
759975 759745
759975 760412
759975 760209
759975 759688
759745 760412
764129 759688
759688 763167
759688 759661
759688 762604
763167 762604
