639814 639688
639814 639735
639814 640552
639814 640209
639814 639822
639814 643865
639814 640115
639688 640961
639688 644061
639688 639822
639688 640917
639688 641194
639688 639439
639688 639743
639688 644104
639688 644093
639688 644097
639688 640952
639688 639735
639688 642285
639735 639822
639735 639743
640552 640511
640552 641304
640552 639822
640552 643302
640552 643865
640552 640112
640552 640115
640552 642007
640552 640540
640552 640386
640552 642285
640552 640209
640552 641326
640209 639822
640209 643865
640209 640112
640209 641644
640209 641742
640209 641922
640209 640115
640209 642007
640209 641092
640209 640386
640209 642285
640209 641110
639822 643865
639822 641922
639822 642007
639822 640386
639822 642285
639822 639479
639822 639482
639822 640444
639822 640441
643865 641304
643865 643302
640115 641304
640115 643302
640115 640128
640115 640112
640115 640035
640115 642285
640115 641326
640511 640540
640011 640035
640011 639975
640011 639991
640011 639972
640011 639988
640011 642057
640011 642061
640011 640007
640035 639975
640035 639991
640035 642285
640035 639972
640035 639988
640035 640007
639975 639991
639975 639988
639975 640007
639975 639972
639991 640007
639991 639972
639991 639988
639972 639988
639972 640007
639988 640007
642057 642061
640961 642099
640961 640386
642099 643700
642099 643686
640386 641326
641304 643302
643302 640112
644061 639439
639439 640917
642007 639954
642007 642885
642007 642285
642285 644104
642285 644093
642285 644097
642285 640952
639479 639482
639479 640444
639479 640441
639482 640444
639482 640441
640444 640441
640917 640952
640952 644104
640952 644093
640952 644097
640112 640128
643700 643686
644104 644093
644104 644097
644093 644097
641644 641742
641092 641110
