636904 633244
636904 636919
636904 632600
633244 633195
633244 633377
633244 633615
633244 632600
633244 632723
633244 633781
633244 632672
633244 632735
633244 632731
633244 636919
633244 632939
636919 632600
632600 633195
632600 632669
632600 633377
632600 632672
632600 632735
632600 632939
633195 635344
633195 634839
633195 633377
633195 634428
633195 632735
633195 632731
633195 637651
633195 632939
635344 634839
635344 634428
634839 633377
634839 634428
634839 632939
633377 632669
633377 632564
633377 635849
633377 632735
633377 632731
633377 632939
633377 637651
633377 634428
634428 632669
634428 632564
634428 635803
634428 637651
634428 635217
634428 637528
634428 634599
634428 635849
634428 635944
634428 632735
634428 636981
634428 637814
634428 637827
634428 634615
634428 632939
634428 635043
634428 636958
634428 636962
634428 635220
632735 632915
632735 634512
632735 632723
632735 633948
632735 632404
632735 632731
632735 632719
632735 632939
632731 632723
632731 632719
632731 632404
632731 632939
637651 632564
637651 637814
637651 637827
637651 637648
632939 632669
632939 632564
632939 635075
632939 632915
632939 635803
632939 635944
632939 636027
632939 636030
632939 636036
632939 633948
632939 635100
632669 632672
632669 634555
632672 633615
632672 634236
632672 632723
632672 633054
632672 633781
632672 633066
632564 633615
632564 637814
632564 637827
632564 635803
632564 632415
632564 635944
632564 636027
632564 636030
632564 636036
632564 632404
633615 635803
633615 632723
633615 633781
637814 637827
632415 632404
635944 636027
635944 636030
635944 636036
636027 636030
636027 636036
636030 636036
632404 632723
632404 632719
635075 635100
632723 632719
635217 635220
634599 634615
633054 633066
636981 636958
636981 636962
636958 636962
