616137 616164
616137 616130
616164 616130
616130 619484
616130 616998
616130 616570
616130 619728
616130 617153
616130 619973
616130 617137
616130 616213
616130 616785
616130 619664
616130 616035
616130 617330
616130 616740
617470 617153
617470 617330
617470 616570
617470 617309
617470 616785
617153 619484
617153 616570
617153 617137
617153 616740
617153 617833
617153 617309
617153 617330
617153 616213
617153 616785
617330 616998
617330 616570
617330 617309
617330 616785
617330 616035
617330 616740
616570 616998
616570 619728
616570 617309
616570 616213
616570 616035
616570 616751
616570 616785
616570 616740
617309 616998
617309 616785
617309 616740
616785 617833
616785 616751
616785 616740
619484 617137
619484 616213
617137 616213
616213 619728
616213 619973
616213 619664
616213 616035
616213 616740
616998 616740
616740 616035
616740 616751
619728 616035
616035 616030
616035 619973
616035 616048
