567224 565084
567224 567460
567224 565850
567224 567474
567224 566435
567224 567230
567224 566399
567224 566176
567224 566608
567224 565403
567224 565008
567224 566191
567224 565558
567224 565005
565084 565008
565084 567039
565084 569603
565084 567460
565084 565850
565084 567474
565084 566435
565084 566399
565084 565005
565084 566608
565084 565021
565084 566191
565084 565558
565084 566612
565084 567230
565084 566176
565084 565767
565084 565403
565084 567695
567460 565008
567460 567474
567460 566191
567460 565850
567460 565558
567460 566435
567460 567230
567460 566399
567460 566176
567460 565005
567460 566608
567460 565403
565850 565008
565850 566191
565850 567474
565850 565902
565850 565005
565850 565558
565850 566435
565850 567230
565850 566399
565850 566176
565850 566608
565850 565403
567474 565008
567474 566191
567474 565558
567474 566435
567474 567230
567474 566399
567474 566176
567474 565005
567474 566608
567474 565403
566435 565008
566435 566191
566435 565558
566435 566425
566435 567230
566435 566399
566435 566176
566435 565005
566435 566608
566435 565403
567230 565008
567230 566191
567230 565558
567230 566399
567230 566176
567230 566608
567230 565403
567230 565005
566399 565008
566399 567039
566399 566191
566399 565558
566399 566425
566399 566176
566399 565005
566399 566608
566399 567789
566399 565767
566399 565403
566176 565008
566176 567039
566176 566191
566176 565558
566176 566425
566176 566608
566176 567789
566176 565767
566176 565005
566176 565403
566608 565008
566608 566191
566608 565558
566608 566612
566608 568059
566608 565767
566608 565005
566608 565403
565403 565008
565403 569603
565403 565659
565403 566191
565403 565558
565403 565767
565403 565005
565403 565421
565008 571205
565008 565014
565008 565838
565008 566425
565008 566511
565008 571657
565008 565902
565008 565767
565008 565005
565008 565421
565008 567695
565008 565278
565008 565021
565008 566191
565008 565558
565008 564987
565008 570596
565008 568913
565008 568230
566191 569603
566191 565558
566191 566425
566191 565767
566191 566511
566191 565005
565558 566612
565558 568059
565558 565767
565558 565005
565005 567039
565005 569603
565005 565021
565005 565014
565005 566425
565005 564987
565005 566511
565005 571657
565005 565902
565005 569511
565005 565767
565005 567695
565021 565152
565021 565014
565021 564987
565767 568341
565767 570596
565767 568913
565767 568230
565767 567695
565014 564987
566511 571657
568230 568341
