491949 491695
491949 489145
491695 488937
491695 488356
491695 488405
491695 488432
491695 489145
491695 491594
491695 488800
489145 489041
489145 488937
489145 488398
489145 491995
489145 490597
489145 488356
489145 488405
489145 491594
489145 488272
489145 489593
489145 493696
489145 491299
489145 488432
489145 489358
489145 488576
489145 489374
489145 489589
489145 492198
489145 488800
489145 492342
489145 493702
489145 489467
493097 491216
491216 494549
491216 488272
491216 494544
491216 488800
491216 494356
491216 494151
491216 491921
491216 494450
489041 491995
489041 490969
489041 488272
489041 488432
489041 491299
489041 488576
489041 489207
491995 488398
491995 490597
491995 488432
491995 488576
488272 488398
488272 488389
488272 490597
488272 488356
488272 488405
488272 494549
488272 488282
488272 488619
488272 494544
488272 488522
488272 488306
488272 495068
488272 495033
488272 488432
488272 488576
488272 488800
488272 494450
488272 488789
488432 488937
488432 488398
488432 488389
488432 490597
488432 488356
488432 488405
488432 489593
488432 488425
488432 489856
488432 491299
488432 489358
488432 488576
488432 488619
488432 489467
488432 489374
488432 489289
488432 489589
488432 488800
488432 488789
488432 493333
488432 489283
488576 488398
488576 490597
488937 488356
488937 488405
488937 488800
488356 488398
488356 488389
488356 490597
488356 488405
488356 488619
488356 488800
488356 488789
488405 488398
488405 488389
488405 489593
488405 488800
488800 494549
488800 488619
488800 494544
488800 494450
488800 488789
488398 488389
488398 490597
488398 489593
488398 489374
488398 489589
488389 490597
490597 489374
490597 493696
490597 489358
490597 493702
489593 489374
489593 489589
489374 493696
489374 494862
489374 489358
489374 489589
489374 493702
493696 493702
493696 489358
489358 493702
489358 489467
488619 488789
494549 494544
494549 494450
494544 494450
494356 494151
494151 494141
494151 492342
494151 494128
494141 494128
489289 489283
