421469 425949
421469 422193
421469 421441
421469 421398
421469 421835
421469 425916
421469 421851
421469 425922
421469 425938
421469 421661
421469 426387
421469 426391
421469 421430
421469 421607
421469 423392
421469 425581
425949 421398
425949 421835
425949 425916
425949 421607
425949 425922
425949 425938
422193 421607
422193 424611
421441 421604
421441 421398
421441 427414
421441 422801
421441 421593
421441 426892
421441 421661
421441 421300
421441 427245
421441 421430
421441 421607
421398 421604
421398 422332
421398 422673
421398 421367
421398 421835
421398 422918
421398 427596
421398 425916
421398 422801
421398 421607
421398 422698
421398 421851
421398 425922
421398 422909
421398 425938
421398 421348
421398 421855
421398 421593
421398 422411
421398 421383
421835 425916
421835 421851
421835 421855
421835 425922
421835 425938
421835 421607
425916 421607
425916 425922
425916 425938
421851 421607
421851 421855
425922 421607
425922 425938
425938 421607
421661 421430
421661 421607
426387 426391
426387 421607
426391 421607
421430 421300
421430 421607
421607 424611
421607 421604
421607 422332
421607 424587
421607 427414
421607 423864
421607 427245
421607 422801
421607 421593
421607 426892
421607 425655
421607 424335
421607 423392
421607 421855
421607 422909
421607 422411
421607 425581
421604 421593
427414 427245
427414 425128
427414 422411
422801 427245
422801 425128
422801 422411
421593 422332
421300 421308
424093 423864
424093 422411
423864 422411
422411 425128
422411 421855
422673 422698
421367 421383
421367 421348
421383 421348
422918 427596
422918 422909
