403583 407694
403583 407707
403583 401489
407694 401489
407694 407707
407707 401489
401489 402016
401489 401492
401489 404896
404042 401682
404042 401177
404042 400944
401682 406700
401682 402016
401682 402464
401682 401492
401682 401177
401682 401557
401682 404896
401682 400944
401177 402016
401177 402464
401177 403233
401177 403565
401177 401492
401177 402547
401177 407354
401177 401557
401177 401174
401177 405776
401177 404896
401177 400944
401177 406245
400944 402016
400944 402464
400944 403233
400944 401492
400944 401092
400944 402547
400944 407354
400944 401557
400944 400949
400944 404896
406700 404896
404896 402016
402016 401492
402016 407354
402016 401557
402016 402464
401492 402464
401492 401557
401557 403565
402550 402547
402547 405776
402547 406173
