352927 352944
352927 352108
352927 352905
352944 352108
352944 353153
352944 353470
352944 353548
352944 353239
352944 352905
352108 356660
352108 352725
352108 352170
352108 353153
352108 352905
352108 354162
352108 353836
352108 353239
352108 353742
352108 355469
352108 352248
352108 356405
352108 353470
352108 356457
352108 355590
352108 351968
352108 353548
352108 355608
352108 355606
352108 356448
352108 353745
352394 351968
352394 352371
352394 352248
351968 352170
351968 352371
351968 352028
351968 351989
351968 352051
351968 352248
351968 351962
352371 352248
352248 353470
352248 352313
352248 352262
352248 353239
352725 353153
352725 353548
352725 353745
353153 353470
353153 353239
353548 353470
353548 353742
353548 353745
353745 353470
353745 354162
353745 353836
353745 353742
354162 353470
353239 353470
353239 355590
353239 355608
353239 355606
353742 353470
356457 356448
355590 355608
355590 355606
355608 355606
352028 352051
352028 351989
352028 351962
351989 352051
351989 351962
352051 351962
