306543 305159
306543 306147
306543 303573
306543 305948
305159 303493
305159 303531
305159 305557
305159 303421
305159 305171
305159 306147
305159 303573
305159 305948
305159 305162
305159 306401
306147 303573
306147 305948
303573 305077
303573 305288
303573 303688
303573 303628
303573 305557
303573 304864
303573 308570
303573 303421
303573 305872
303573 310302
303573 304398
303573 308594
303573 306652
303573 305587
303573 304920
303573 303577
303573 303470
303573 306774
303573 306719
303573 304157
303573 305641
303573 306937
303573 303487
303573 303604
303573 304822
303573 305193
303573 305948
303573 303763
303573 309614
305948 304157
305910 308711
305910 305362
305910 303421
305910 305162
305910 303487
305910 303763
308711 303421
305362 303421
303421 303493
303421 303380
303421 303366
303421 303876
303421 303531
303421 305112
303421 305557
303421 304537
303421 306401
303421 308049
303421 303487
303421 304684
303421 308105
303421 305872
303421 303899
303421 303470
303421 303813
303421 303902
303421 305760
303421 303521
303421 305162
303421 304548
303421 303763
303421 305320
305162 303493
305162 303531
305162 305557
305162 305171
305162 306401
305162 308049
305162 303763
303487 303493
303487 303531
303487 305872
303487 303470
303487 303521
303763 306774
305288 304398
305288 305193
303493 303531
303493 305557
303493 306401
303493 303521
303493 303470
303531 305557
303531 306401
303531 303470
303531 305760
303531 303521
305557 305587
305557 303470
305557 306401
303521 303470
303470 305587
303470 305638
303470 305641
303380 303366
303380 304299
303628 303604
304762 304537
304537 304548
303899 303902
305638 305641
305638 304157
304157 309614
