229611 229605
229611 229616
229611 229636
229605 229616
229605 229636
229616 230218
229616 229016
229616 230128
229616 230077
229616 228965
229616 229636
230080 230218
230080 230054
230080 230077
230080 230045
230080 229016
230080 230058
230080 230155
230080 230117
230080 229823
230080 230128
230080 228965
230080 230102
230080 230196
230218 229016
230218 230128
230218 230077
230218 230102
230218 228965
230218 230045
230218 230196
230054 229016
230054 230058
230054 230117
230054 229823
230054 230128
230054 230077
230054 228965
230054 230045
230054 230102
230054 230196
230077 229016
230077 230058
230077 230155
230077 230117
230077 229823
230077 230128
230077 230045
230077 231973
230077 228965
230077 230102
230077 230196
230045 229016
230045 230058
230045 230155
230045 230117
230045 229823
230045 230128
230045 228965
230045 230102
230045 230196
229016 229069
229016 230155
229016 230128
229016 228965
229016 230117
229016 229823
229016 229002
229016 228952
229016 230102
229016 230196
230058 230117
230058 229823
230058 230128
230058 230102
230058 231973
230058 228965
230155 229823
230155 230102
230155 230128
230155 228965
230117 230128
230117 228965
230117 229823
230117 230102
230117 230196
229823 228965
229823 231973
229823 230128
229823 230102
229823 230196
230128 230102
230128 228965
230128 230196
228965 229069
228965 229300
228965 229002
228965 228952
228965 229259
228965 230196
228965 230102
230102 230196
229069 229002
229069 228952
229002 228952
229300 229259
