7 10 41
10 7 39
5 7 19
7 5 18
15 16 17
9 7 16
7 9 16
4 5 15
5 4 15
16 15 15
14 12 13
12 14 12
7 23 12
12 15 12
15 12 12
11 7 11
22 7 11
23 7 11
7 25 11
25 7 11
12 11 11
11 12 11
7 11 10
7 22 10
7 6 8
16 12 7
12 16 6
6 7 5
6 8 5
7 4 5
4 7 5
6 9 4
7 27 4
27 7 4
8 7 3
7 12 3
13 14 3
7 18 3
9 6 3
28 11 3
11 28 3
8 6 2
9 5 2
12 4 2
4 12 2
14 13 2
15 17 2
17 15 2
16 7 2
18 7 2
5 9 2
26 7 2
28 15 2
1 2 1
2 3 1
3 4 1
4 6 1
10 11 1
12 13 1
12 10 1
7 15 1
18 19 1
19 7 1
7 19 1
19 20 1
20 21 1
21 22 1
23 24 1
24 7 1
10 15 1
15 7 1
10 16 1
16 5 1
9 26 1
7 26 1
7 16 1
7 28 1
15 28 1
12 28 1
28 7 1
12 29 1
29 7 1
12 7 1
