174260 175856
174260 175846
174260 173902
174260 174072
174260 174933
174260 174374
174260 173942
174260 176169
174260 177178
174260 174210
174260 175871
174260 174964
174260 173948
175856 175894
175856 175058
175856 174933
175856 176169
175856 175846
175856 177178
175856 174041
175856 175871
175856 173948
175856 173902
175856 176184
175846 175894
175846 175058
175846 174933
175846 176169
175846 177178
175846 174041
175846 175871
175846 173902
175846 176184
173902 174933
173902 173942
173902 176169
173902 175871
173902 173948
173902 173909
173902 179569
174072 174564
174072 180798
174072 174374
174072 173942
174072 174032
174072 180917
174072 180720
174072 174041
174072 174210
174072 174964
174072 173948
174072 174556
174072 175364
174072 174455
174072 175240
174933 176169
174933 175871
174374 173948
174374 175256
174374 175142
174374 175081
173942 174564
173942 174210
173942 174964
173942 174041
173942 173948
173942 174556
173942 173909
176169 175058
176169 176184
176169 177178
176169 174041
176169 175871
177178 175058
177178 175958
174210 173948
175871 175894
175871 174041
175871 173948
174964 174032
174964 174041
174964 178513
174964 173948
174964 174556
174964 175364
174964 175240
173948 174564
173948 180798
173948 180765
173948 177053
173948 175058
173948 178055
173948 175958
173948 175954
173948 174032
173948 180917
173948 180720
173948 174041
173948 174556
173948 175450
173948 174455
173948 176971
173948 175081
173948 178513
173948 175364
173948 173909
173948 176103
173948 176337
174564 174041
174564 175523
174564 174556
174564 180798
174564 174032
174564 180720
174041 174032
174041 174341
174041 176184
174041 174119
174041 174556
174041 175364
174041 175240
174556 180798
174556 174032
174556 180720
174556 174119
174556 175364
174556 175240
180798 180917
180798 180720
174032 174119
174032 178725
174032 175240
180720 180917
180720 174341
180720 180777
177053 175058
177053 177068
175058 177068
175256 175142
175142 175411
175081 175450
175958 175954
175958 179829
175958 180483
175954 179829
174119 174341
175240 175364
180987 180777
180777 174341
176103 176337
