124086 120245
124086 121161
120245 121296
120245 127035
120245 121311
120245 125967
120245 120242
120245 122203
120245 121161
120245 124939
120245 122577
120245 120299
120245 121338
120245 122341
120245 123091
121161 121296
121161 121311
121161 122737
121161 121338
121161 122572
121296 121338
121296 121311
121296 122341
121338 121311
121311 122203
122341 123334
122341 122203
122341 123217
122341 122357
122341 122344
122341 122572
122341 123285
122341 122350
122341 122577
127035 122577
122577 127330
122577 127491
122577 127505
122577 122572
122203 125185
123217 123285
122357 122344
122357 122350
122344 122350
122737 122572
127491 127505
