116053 116062
116053 117389
116053 114839
116053 116098
116053 114436
116053 114769
116053 115529
116053 114765
116062 118050
116062 117389
116062 116098
116062 114436
116062 118101
116062 115529
117389 116098
117389 114436
114839 115760
114839 114820
114839 115420
114839 116370
114839 116448
114839 114843
114839 115743
114839 114854
114839 114808
114839 114436
114839 115823
114839 116098
114839 114769
114839 114765
116098 114436
114436 120106
114436 119109
114436 115069
114436 115760
114436 114820
114436 115420
114436 118050
114436 116370
114436 116448
114436 118101
114436 114430
114436 119143
114436 114843
114436 115743
114436 115254
114436 114854
114436 114808
114436 116924
114436 117192
114436 115190
114436 117602
114436 114769
114436 114765
114436 117579
114436 115823
114436 114454
114436 115692
114436 120115
114436 118249
114769 119109
114769 114820
114769 116370
114769 114843
114769 114854
114769 114808
114769 117192
114769 114765
115529 115581
115529 115534
114765 119109
114765 114820
114765 116370
114765 114430
114765 114843
114765 114854
114765 114808
114765 117192
120106 120115
119109 117192
115760 115743
114820 114843
114820 114854
114820 114808
114843 114854
114843 114808
114854 114808
114808 115823
115581 115534
116370 116448
116448 114454
114454 114430
116909 116924
115254 115190
117602 117579
