34888 34427
34888 34431
34427 39342
34427 36983
34427 34625
34427 34641
34427 36103
34427 34462
34427 34652
34427 35074
34427 38491
34427 35781
34427 36012
34427 34597
34427 36475
34427 35699
34427 35260
34427 36978
34427 34431
34427 36971
34427 35979
34427 34781
34427 36565
34431 39342
34431 36983
34431 34625
34431 35699
34431 34641
34431 36103
34431 39692
34431 34462
34431 35260
34431 35344
34431 34652
34431 36978
34431 35074
34431 38491
34431 35593
34431 39839
34431 36971
34431 39829
34431 35781
34431 34597
34431 36475
34431 35979
34431 36012
34431 39682
36211 35883
36211 35344
36211 35260
35883 35837
35883 35891
35883 35260
35883 35344
35344 35837
35344 34625
35344 35260
35344 36715
35344 35891
35344 35593
35344 34652
35344 35323
35260 39342
35260 36983
35260 35837
35260 34625
35260 34641
35260 39692
35260 34652
35260 36715
35260 35891
35260 36605
35260 34646
35260 39839
35260 39829
35260 36565
35260 35323
35260 36978
35260 35256
35260 35593
35260 36971
35260 36780
35260 40123
35260 39763
35260 39682
39342 34641
39342 36605
39342 36565
39342 34652
39342 39839
34641 34625
34641 36605
34641 34646
34641 39829
34641 34989
34641 34652
34641 38617
34641 35593
34641 36565
36605 34625
36605 34652
36605 36565
36565 35837
36565 34625
36565 34652
36565 38617
36565 35593
34652 34625
34652 35593
34652 38617
34652 38491
34652 34646
39839 39829
36983 34625
36983 34646
36983 36978
36983 36971
36983 40123
34625 35837
34625 36715
34625 38491
34625 35593
34625 34646
34625 37703
34625 34989
34625 36978
34625 36971
34625 36780
36978 36971
35837 36715
35837 35891
35593 38617
35593 40205
35593 37703
35593 39829
36103 35979
36103 36012
34462 34597
35781 35699
36012 35979
39692 39682
