3909643 3909653
3909643 3909664
3909643 3909775
3909643 3906293
3909643 3909646
3909643 3905824
3909653 3909664
3909653 3909775
3909653 3906293
3909653 3905824
3909653 3909646
3909664 3905824
3909664 3909775
3909664 3906293
3909664 3909646
3909775 3905824
3909775 3906293
3909775 3910019
3909775 3909646
3906293 3906119
3906293 3907169
3906293 3908759
3906293 3905824
3906293 3910533
3906293 3907164
3906293 3906098
3906293 3907323
3906293 3908909
3906293 3910019
3906293 3908897
3906293 3906765
3906293 3909646
3909646 3905824
3905824 3906119
3905824 3907169
3905824 3906050
3905824 3907164
3905824 3906215
3905824 3910641
3905824 3906098
3905824 3905999
3905824 3908909
3905824 3910019
3905824 3908897
3905824 3906196
3905824 3906765
3905824 3910963
3905824 3910990
3905824 3905929
3905824 3910634
3905824 3907323
3905824 3905916
3905824 3905813
3905824 3905846
3906119 3906215
3906119 3908897
3906119 3906196
3906119 3908909
3906215 3906196
3908897 3908909
3907169 3908759
3907169 3907164
3907169 3907323
3907169 3910990
3907169 3906765
3907169 3910963
3908759 3906765
3908759 3907164
3908759 3907323
3907164 3907323
3907164 3906765
3907323 3906765
3910990 3910963
3906765 3909378
3906765 3910019
3906050 3906098
3910641 3910634
3905929 3905916
