5212590 5205506
5212590 5205516
5205506 5211487
5205506 5206167
5205506 5205646
5205506 5205516
5205506 5205848
5205506 5206145
5205506 5207065
5205506 5210720
5205506 5211423
5205506 5208629
5205506 5206592
5205506 5209478
5205506 5205696
5205506 5206493
5205506 5205733
5205506 5210897
5205506 5209577
5205506 5208323
5205506 5211534
5205506 5206399
5205516 5206167
5205516 5205646
5205516 5211423
5205516 5206592
5205516 5206145
5205516 5206493
5205516 5205733
5205516 5206399
5205516 5208629
5205516 5209478
5206696 5206712
5206696 5206145
5206712 5206145
5206145 5206167
5206145 5205733
5206145 5207065
5206145 5210897
5206145 5210720
5206145 5211534
5206145 5208629
5211487 5207065
5211487 5212696
5211487 5206167
5207065 5206167
5207065 5207080
5207065 5205733
5207065 5212696
5212696 5206167
5206167 5210720
5206167 5208162
5206167 5210576
5209088 5208629
5207080 5205733
5205733 5211534
5205646 5211423
5205646 5206592
5205646 5209478
