5193912 5193947
5193947 5193998
5193947 5193983
5194504 5194725
5194504 5194696
5194504 5194769
5194504 5194698
5194504 5196450
5194504 5194225
5194504 5194191
5194504 5194486
5194504 5194409
5194504 5194296
5194504 5194037
5194504 5194119
5194504 5196401
5194504 5194144
5194504 5193983
5194504 5194630
5194504 5195530
5194504 5194397
5194725 5194225
5194725 5194769
5194725 5194191
5194725 5194486
5194725 5194409
5194725 5194696
5194725 5194296
5194725 5194037
5194725 5194119
5194725 5194698
5194725 5194144
5194725 5193983
5194725 5194630
5194725 5194397
5194696 5194225
5194696 5194191
5194696 5194486
5194696 5194409
5194696 5194769
5194696 5194698
5194696 5194296
5194696 5194037
5194696 5194119
5194696 5194144
5194696 5193983
5194696 5194630
5194696 5194397
5194769 5194225
5194769 5194191
5194769 5194486
5194769 5194409
5194769 5194971
5194769 5194296
5194769 5193983
5194769 5194397
5194769 5194037
5194769 5194119
5194769 5194698
5194769 5194144
5194769 5194630
5194769 5195004
5194698 5194225
5194698 5194191
5194698 5194486
5194698 5194409
5194698 5194296
5194698 5194037
5194698 5194119
5194698 5196450
5194698 5194144
5194698 5193983
5194698 5194630
5194698 5194397
5196450 5194486
5196450 5194296
5196450 5194037
5196450 5196401
5196450 5193983
5196450 5194630
5196450 5195530
5196450 5194397
5194225 5194486
5194225 5194409
5194225 5194296
5194225 5194037
5194225 5193983
5194225 5194630
5194225 5194397
5194225 5194191
5194225 5194119
5194225 5194144
5194191 5194486
5194191 5194409
5194191 5194296
5194191 5194037
5194191 5193983
5194191 5194630
5194191 5194397
5194191 5194119
5194191 5194144
5194486 5194296
5194486 5199355
5194486 5193983
5194486 5199346
5194486 5195530
5194486 5194397
5194486 5194409
5194486 5194037
5194486 5194119
5194486 5196401
5194486 5194144
5194486 5194630
5194409 5194296
5194409 5195214
5194409 5195205
5194409 5194037
5194409 5194630
5194409 5195004
5194409 5195958
5194409 5194397
5194409 5195120
5194409 5194119
5194409 5194144
5194409 5193983
5194409 5195530
5194296 5199355
5194296 5194037
5194296 5194630
5194296 5199346
5194296 5195958
5194296 5194119
5194296 5194144
5194296 5193983
5194296 5195530
5194296 5194397
5194037 5193998
5194037 5194971
5194037 5199251
5194037 5199355
5194037 5197822
5194037 5196401
5194037 5193983
5194037 5195530
5194037 5194397
5194037 5194119
5194037 5197710
5194037 5194009
5194037 5194144
5194037 5194630
5194037 5199346
5194037 5194011
5194119 5194144
5194119 5193983
5194119 5194630
5194119 5194397
5196401 5193983
5196401 5194630
5196401 5195530
5196401 5194397
5194144 5193983
5194144 5194630
5194144 5194397
5193983 5193998
5193983 5199251
5193983 5199355
5193983 5197822
5193983 5199346
5193983 5194397
5193983 5194630
5193983 5195530
5194630 5199251
5194630 5199355
5194630 5197822
5194630 5197710
5194630 5195530
5194630 5194397
5194630 5199346
5195530 5199194
5195530 5199251
5195530 5199355
5195530 5197822
5195530 5197710
5195530 5199346
5195530 5194397
5194397 5198018
5194397 5196781
5194397 5197199
5194397 5199251
5194397 5199355
5194397 5197822
5194397 5195214
5194397 5195302
5194397 5199346
5194397 5197411
5194397 5198045
5194397 5197915
5193998 5194009
5193998 5194011
5194009 5194011
5198018 5198045
5198018 5197915
5198045 5196781
5198045 5195214
5198045 5195302
5198045 5197915
5197915 5196781
5196781 5195302
5196781 5196785
5196781 5195214
5196781 5197411
5195302 5195214
5195214 5197411
5195214 5195205
5195214 5195120
5199355 5199251
5199355 5199346
5199346 5199251
5195205 5195120
