4299268 4297757
4299268 4297764
4297757 4299024
4297757 4298834
4297757 4301657
4297757 4297746
4297757 4302401
4297757 4298954
4297757 4298234
4297757 4301524
4297757 4298796
4297757 4299235
4297757 4297830
4297757 4301681
4297757 4302395
4297757 4301269
4297757 4299088
4297757 4298424
4297757 4299170
4297757 4300435
4297757 4297764
4297757 4298564
4297757 4301133
4297757 4298685
4297764 4301269
4297764 4298424
4297764 4297746
4297764 4299170
4297764 4300435
4297764 4302401
4297764 4298234
4297764 4298796
4297764 4297830
4297764 4302395
4297764 4298564
4297764 4301133
4297764 4298685
4297764 4299235
4301657 4301269
4301657 4301681
4297746 4299170
4297746 4298564
4302401 4302395
4301524 4301269
4298796 4299170
4298796 4297830
4299235 4299170
4299235 4298564
4297830 4298685
4301681 4301269
4299170 4298564
