73893 73135
73893 74060
73893 73782
73893 72966
73893 73905
73135 76177
73135 75182
73135 75188
73135 76560
73135 74535
73135 76871
73135 74060
73135 73619
73135 74395
73135 78119
73135 74515
73135 76310
73135 74494
73135 76547
73135 78986
73135 75333
73135 74411
73135 78547
73135 73141
73135 74389
73135 73782
73135 72966
73135 74953
73135 74468
73135 75023
73135 75811
73135 75797
73135 74647
73135 76877
73135 75234
73135 77740
73135 73905
74060 74535
74060 74389
74060 72966
74060 74468
74060 74647
74060 73905
74060 74395
74060 74515
74060 74494
74060 74411
73782 72966
73782 73905
72966 72971
72966 72960
72966 75023
72966 73312
72966 73610
72966 73905
72966 73619
78024 75023
78024 78010
78024 77897
75023 76177
75023 72971
75023 75188
75023 76560
75023 73141
75023 76871
75023 74953
75023 74468
75023 75811
75023 75797
75023 73619
75023 76310
75023 78010
75023 73610
75023 77897
75023 78986
75023 75333
75023 76547
75023 75234
78010 77897
77268 73619
73619 73610
76177 76310
72971 73312
72971 72960
72971 73610
75182 75188
76560 76547
74535 74647
74535 74389
74535 74468
74535 74395
74535 74515
74535 74494
74535 74411
76871 76877
74395 74389
74395 74468
74395 74647
74395 74515
74395 74494
74395 74411
78119 74647
74515 74389
74515 74468
74515 74647
74515 74494
74515 74411
74494 74389
74494 74468
74494 74647
74494 74411
78986 73141
75333 74953
75333 75234
74411 74389
74411 74468
74411 74647
78547 73141
73141 74647
74389 74468
74389 74647
74953 75234
74468 74647
75811 75797
