6 28 58
28 6 53
6 1 40
1 6 36
43 6 11
6 43 10
28 1 9
12 6 8
1 28 7
6 12 6
31 6 6
6 35 6
6 31 5
115 1 5
1 2 4
35 6 4
35 1 4
1 115 4
1 13 3
1 35 3
13 6 2
18 19 2
19 20 2
13 1 2
12 1 2
1 37 2
37 1 2
1 42 2
6 49 2
49 6 2
2 6 2
28 73 2
73 6 2
74 28 2
2 3 1
3 4 1
4 1 1
2 1 1
1 5 1
5 6 1
6 7 1
7 6 1
6 8 1
8 6 1
6 9 1
9 10 1
10 11 1
11 12 1
6 13 1
13 14 1
14 13 1
6 15 1
15 6 1
6 16 1
16 17 1
17 18 1
20 19 1
19 18 1
19 21 1
21 1 1
1 22 1
22 1 1
6 23 1
23 24 1
24 25 1
25 6 1
6 26 1
26 27 1
27 6 1
28 29 1
29 6 1
6 30 1
30 31 1
6 32 1
32 33 1
33 34 1
34 6 1
35 36 1
36 6 1
35 12 1
1 12 1
1 38 1
38 39 1
39 1 1
1 39 1
39 40 1
40 41 1
41 1 1
42 1 1
42 43 1
43 44 1
44 6 1
6 45 1
45 46 1
46 47 1
47 6 1
6 48 1
48 12 1
6 50 1
50 6 1
6 51 1
51 6 1
6 52 1
52 1 1
6 53 1
53 6 1
1 54 1
54 6 1
6 55 1
55 56 1
56 6 1
6 57 1
57 6 1
1 58 1
58 6 1
6 2 1
1 59 1
59 6 1
6 60 1
60 61 1
61 62 1
62 6 1
6 63 1
63 64 1
64 65 1
65 66 1
66 67 1
67 6 1
1 68 1
68 69 1
69 70 1
70 71 1
71 72 1
72 6 1
73 28 1
6 74 1
28 71 1
71 1 1
1 75 1
75 28 1
1 76 1
76 74 1
6 73 1
28 77 1
77 28 1
6 78 1
78 79 1
79 80 1
80 6 1
6 71 1
71 6 1
6 81 1
81 82 1
82 71 1
71 83 1
83 74 1
74 6 1
28 84 1
84 31 1
31 43 1
28 85 1
85 1 1
6 86 1
86 1 1
1 87 1
87 88 1
88 1 1
1 89 1
89 90 1
90 6 1
1 91 1
91 92 1
92 1 1
1 93 1
93 6 1
6 94 1
94 1 1
1 95 1
95 6 1
1 96 1
96 6 1
1 97 1
97 98 1
98 6 1
6 99 1
99 1 1
1 3 1
3 1 1
6 100 1
100 101 1
101 1 1
1 102 1
102 1 1
1 103 1
103 43 1
43 31 1
31 104 1
104 1 1
1 31 1
31 1 1
1 43 1
43 1 1
1 105 1
105 106 1
106 1 1
1 107 1
107 1 1
1 108 1
108 1 1
1 109 1
109 110 1
110 111 1
111 6 1
28 112 1
112 28 1
28 35 1
35 113 1
113 1 1
1 114 1
114 115 1
1 116 1
116 1 1
2 35 1
1 117 1
117 19 1
20 118 1
