12 10 54
10 12 47
15 16 30
16 15 30
17 15 15
15 17 14
5 4 11
15 18 11
17 12 11
12 17 11
4 5 10
18 15 10
10 17 7
24 22 6
17 10 6
10 15 6
26 12 6
85 84 6
15 10 5
84 10 5
22 10 4
22 24 4
12 26 4
10 85 4
17 5 3
5 17 3
17 4 3
4 17 3
23 26 3
15 12 3
58 53 3
10 11 2
11 10 2
7 17 2
17 19 2
19 15 2
19 10 2
12 15 2
17 35 2
35 33 2
10 22 2
17 22 2
56 54 2
53 58 2
10 32 2
26 32 2
16 67 2
32 26 2
32 41 2
41 32 2
16 7 2
84 85 2
1 2 1
2 3 1
3 2 1
2 4 1
4 6 1
6 5 1
5 7 1
7 8 1
8 5 1
4 9 1
9 10 1
10 13 1
13 11 1
11 14 1
14 15 1
16 17 1
15 7 1
18 17 1
17 20 1
20 21 1
21 20 1
20 22 1
22 21 1
21 23 1
23 20 1
20 24 1
15 25 1
25 17 1
10 23 1
15 27 1
27 15 1
12 19 1
10 28 1
28 29 1
29 30 1
30 16 1
16 31 1
31 12 1
12 31 1
31 32 1
32 33 1
33 34 1
34 12 1
33 36 1
36 12 1
33 12 1
12 37 1
37 38 1
38 11 1
11 16 1
16 39 1
39 16 1
15 40 1
40 15 1
15 19 1
15 41 1
41 16 1
16 42 1
42 16 1
16 43 1
43 41 1
41 44 1
44 16 1
16 22 1
22 45 1
45 22 1
22 46 1
46 47 1
47 17 1
22 17 1
17 48 1
48 49 1
49 43 1
43 24 1
24 50 1
50 22 1
22 50 1
50 51 1
51 52 1
52 22 1
22 43 1
43 53 1
53 24 1
24 53 1
53 54 1
54 55 1
55 24 1
24 56 1
54 56 1
54 57 1
57 58 1
53 7 1
7 22 1
22 59 1
59 24 1
22 12 1
32 60 1
60 12 1
10 61 1
61 24 1
24 12 1
10 26 1
10 62 1
62 12 1
12 63 1
63 12 1
10 25 1
25 24 1
24 64 1
64 65 1
65 17 1
17 24 1
24 17 1
26 66 1
66 67 1
67 32 1
32 12 1
12 68 1
68 15 1
15 32 1
32 15 1
32 69 1
69 12 1
10 70 1
70 17 1
17 32 1
32 71 1
71 24 1
22 72 1
72 22 1
24 73 1
73 74 1
74 17 1
17 75 1
75 17 1
17 7 1
7 76 1
76 7 1
17 77 1
77 17 1
32 78 1
78 26 1
12 79 1
79 12 1
12 32 1
32 67 1
67 80 1
80 16 1
67 42 1
42 81 1
81 26 1
26 79 1
79 82 1
82 79 1
79 32 1
26 23 1
12 23 1
26 16 1
67 16 1
7 16 1
7 83 1
83 84 1
10 84 1
