11 2 57
2 11 57
2 8 24
8 2 22
18 11 15
4 6 13
11 18 13
11 8 12
8 4 11
8 11 11
3 2 10
2 4 10
6 2 10
6 4 10
2 3 9
2 6 9
4 2 9
11 4 8
14 2 8
4 8 8
2 14 8
2 18 8
18 2 7
4 14 6
4 11 6
2 26 6
26 2 6
2 34 6
14 4 5
14 11 5
11 9 5
9 11 5
34 2 5
2 7 4
7 2 4
11 14 4
6 7 3
7 6 3
8 20 3
20 8 3
4 5 2
5 4 2
6 3 2
10 11 2
8 16 2
17 6 2
19 8 2
6 22 2
22 11 2
4 27 2
27 28 2
28 11 2
14 32 2
6 14 2
11 32 2
2 35 2
35 26 2
26 35 2
35 2 2
1 2 1
3 6 1
7 8 1
4 9 1
9 2 1
2 10 1
11 10 1
2 12 1
12 4 1
4 13 1
13 4 1
3 15 1
15 2 1
16 8 1
16 17 1
6 17 1
17 18 1
18 17 1
6 19 1
19 4 1
4 19 1
8 3 1
8 21 1
21 8 1
14 6 1
8 23 1
23 6 1
11 24 1
24 11 1
4 18 1
18 4 1
4 25 1
25 4 1
4 26 1
26 4 1
11 29 1
29 19 1
8 27 1
27 8 1
11 30 1
30 31 1
31 7 1
32 6 1
32 14 1
32 22 1
22 14 1
14 29 1
29 11 1
32 11 1
11 33 1
33 2 1
34 26 1
26 18 1
11 36 1
36 2 1
11 37 1
37 11 1
11 38 1
38 11 1
11 6 1
6 39 1
39 40 1
40 6 1
6 11 1
