2 3 186
3 2 185
1 2 18
2 8 18
8 2 16
2 1 14
12 3 14
3 12 13
2 7 11
7 2 11
6 2 10
2 6 9
3 1 8
1 3 7
2 23 7
13 2 7
3 6 6
23 2 6
23 3 6
2 13 6
4 3 5
14 3 5
3 14 5
3 23 5
3 4 4
3 5 4
5 3 4
2 12 4
18 3 4
24 3 4
3 24 4
2 4 3
6 3 3
3 13 3
2 16 3
16 2 3
2 17 3
17 2 3
3 18 3
8 10 2
8 7 2
7 8 2
13 3 2
6 13 2
13 6 2
6 1 2
12 14 2
14 12 2
12 2 2
4 2 2
8 9 1
9 2 1
10 8 1
10 2 1
2 11 1
11 2 1
12 13 1
13 14 1
14 2 1
2 15 1
15 2 1
17 3 1
3 17 1
2 18 1
18 19 1
19 3 1
3 19 1
19 18 1
2 20 1
20 12 1
12 21 1
21 22 1
22 3 1
2 24 1
24 2 1
3 25 1
