27 28 3
20 16 2
11 35 2
16 54 2
65 27 2
27 65 2
1 2 1
2 3 1
3 4 1
4 5 1
5 6 1
6 7 1
7 8 1
8 9 1
9 10 1
10 11 1
11 12 1
12 13 1
13 14 1
14 15 1
15 16 1
16 17 1
17 13 1
13 18 1
18 19 1
19 20 1
16 21 1
21 14 1
14 16 1
16 22 1
22 16 1
16 23 1
23 16 1
16 24 1
24 16 1
16 7 1
7 25 1
25 16 1
16 20 1
20 26 1
26 7 1
7 27 1
28 29 1
29 30 1
30 18 1
18 31 1
31 32 1
32 33 1
33 34 1
34 11 1
35 11 1
11 36 1
36 11 1
35 37 1
37 11 1
11 20 1
20 38 1
38 11 1
11 39 1
39 11 1
11 18 1
18 16 1
16 40 1
40 20 1
16 41 1
41 16 1
16 42 1
42 43 1
43 44 1
44 16 1
16 45 1
45 46 1
46 47 1
47 48 1
48 49 1
49 50 1
50 51 1
51 52 1
52 53 1
53 16 1
54 55 1
55 16 1
16 56 1
56 18 1
18 57 1
57 18 1
18 58 1
58 59 1
59 60 1
60 61 1
61 62 1
62 57 1
57 63 1
63 31 1
31 18 1
18 27 1
28 64 1
64 27 1
28 27 1
27 13 1
13 65 1
27 66 1
66 65 1
65 28 1
28 67 1
67 66 1
66 27 1
65 5 1
5 28 1
28 65 1
27 68 1
68 69 1
69 27 1
65 70 1
70 71 1
71 72 1
72 27 1
27 73 1
73 74 1
74 27 1
27 75 1
75 76 1
76 16 1
16 77 1
77 5 1
5 14 1
14 78 1
78 16 1
16 14 1
14 79 1
79 80 1
80 16 1
16 81 1
81 16 1
16 82 1
82 11 1
11 16 1
54 83 1
83 16 1
16 84 1
84 16 1
16 85 1
85 16 1
16 86 1
86 87 1
87 88 1
88 13 1
13 72 1
72 89 1
89 16 1
16 18 1
