9 3 120
3 9 117
3 14 94
14 3 89
3 8 32
8 3 29
3 4 13
14 20 13
20 14 12
20 3 11
4 3 10
3 20 9
20 28 9
28 20 9
9 10 8
10 3 7
21 3 7
10 9 7
14 22 6
3 10 6
8 9 5
22 14 5
2 3 4
3 21 4
14 9 3
9 8 3
3 23 3
9 14 3
20 26 3
26 20 3
1 2 2
3 2 2
3 6 2
6 3 2
14 17 2
17 14 2
10 8 2
8 10 2
23 3 2
27 20 2
22 8 2
9 21 2
3 1 1
4 5 1
5 3 1
3 7 1
7 3 1
3 11 1
11 9 1
3 12 1
12 3 1
9 13 1
13 3 1
14 15 1
15 3 1
3 16 1
16 9 1
14 18 1
18 19 1
19 14 1
14 21 1
22 3 1
4 9 1
23 9 1
14 24 1
24 14 1
20 25 1
25 20 1
20 21 1
8 27 1
20 27 1
14 29 1
29 20 1
3 22 1
8 22 1
21 30 1
30 31 1
31 32 1
32 3 1
3 33 1
33 3 1
8 20 1
20 9 1
4 34 1
