10 9 33
9 10 31
10 35 15
12 9 13
35 10 13
9 23 12
9 12 11
21 9 11
4 9 11
10 18 10
18 10 10
23 9 10
9 4 10
9 26 10
9 31 10
31 9 10
26 9 9
43 9 9
9 21 8
28 29 8
9 43 8
23 27 7
29 28 7
27 23 6
10 19 5
26 10 5
9 33 5
10 28 5
27 9 5
33 31 4
28 10 4
19 10 4
9 36 4
36 9 4
9 27 4
9 25 3
10 26 3
28 19 3
18 12 3
9 11 2
19 21 2
23 10 2
25 9 2
31 32 2
31 33 2
32 9 2
34 31 2
31 34 2
33 9 2
19 28 2
12 18 2
1 2 1
2 3 1
3 4 1
4 5 1
5 6 1
6 5 1
5 7 1
7 5 1
5 8 1
8 9 1
11 9 1
9 13 1
13 14 1
14 12 1
9 14 1
14 11 1
11 15 1
15 12 1
12 14 1
14 9 1
11 10 1
9 16 1
16 17 1
17 9 1
19 20 1
20 19 1
9 22 1
22 21 1
9 24 1
24 23 1
10 23 1
23 4 1
25 26 1
27 22 1
22 28 1
29 30 1
30 29 1
29 9 1
32 31 1
33 32 1
32 34 1
34 32 1
33 34 1
34 33 1
31 10 1
35 9 1
35 22 1
22 10 1
18 28 1
28 18 1
9 37 1
37 38 1
38 10 1
10 39 1
39 40 1
40 5 1
5 40 1
40 41 1
41 10 1
10 27 1
9 18 1
12 21 1
21 12 1
9 42 1
42 43 1
9 44 1
44 9 1
9 45 1
45 46 1
46 47 1
47 48 1
48 49 1
