4 9 168
9 4 168
4 6 25
6 4 23
4 13 20
13 4 17
4 16 16
16 4 16
16 9 15
9 16 15
26 4 14
4 26 12
13 6 10
6 13 10
15 4 10
7 4 9
18 4 9
4 18 9
4 7 8
4 15 8
9 26 7
3 4 6
26 9 6
30 4 6
4 30 6
4 3 5
11 4 5
4 5 4
5 4 4
7 6 4
4 11 4
4 21 4
21 4 4
6 7 3
13 7 3
7 13 3
4 20 3
23 4 3
9 11 2
19 4 2
20 9 2
20 21 2
21 9 2
4 23 2
4 25 2
26 21 2
13 9 2
6 29 2
29 6 2
20 4 2
33 9 2
1 2 1
2 3 1
6 8 1
8 7 1
9 10 1
10 9 1
11 12 1
12 9 1
6 14 1
14 4 1
9 15 1
4 17 1
17 16 1
9 18 1
18 9 1
9 19 1
16 20 1
21 20 1
9 20 1
4 22 1
22 23 1
4 24 1
24 9 1
25 4 1
25 26 1
4 27 1
27 26 1
6 26 1
26 6 1
6 22 1
22 26 1
9 28 1
28 4 1
21 7 1
6 30 1
30 15 1
15 18 1
18 15 1
9 13 1
13 10 1
10 6 1
4 19 1
13 31 1
31 32 1
32 33 1
9 33 1
