2 9 23
9 2 18
11 2 15
7 2 14
2 11 14
2 5 11
2 7 11
5 2 10
16 2 8
2 16 7
2 17 7
2 8 6
17 2 6
8 2 5
18 2 5
7 27 5
13 14 4
17 18 4
14 13 4
9 7 3
18 17 3
2 18 3
27 2 3
2 3 2
3 2 2
2 10 2
2 15 2
19 20 2
2 21 2
21 2 2
7 9 2
26 7 2
27 7 2
2 27 2
1 2 1
2 4 1
4 2 1
5 6 1
6 2 1
10 2 1
8 11 1
9 12 1
12 13 1
14 12 1
12 2 1
15 2 1
15 16 1
17 7 1
7 18 1
9 17 1
9 19 1
20 19 1
20 2 1
9 14 1
13 2 1
2 22 1
22 23 1
23 24 1
24 5 1
5 21 1
21 25 1
25 23 1
23 7 1
9 26 1
2 26 1
27 9 1
27 28 1
28 16 1
16 7 1
10 8 1
8 29 1
29 10 1
10 21 1
21 30 1
30 11 1
11 7 1
