1 2 109
2 1 104
2 6 42
6 2 39
6 7 14
7 6 13
6 1 13
1 6 7
7 2 7
28 7 7
1 7 6
7 28 6
2 4 5
4 2 5
7 1 5
17 18 4
18 17 4
26 27 4
27 26 4
3 2 3
2 17 3
17 1 3
2 25 3
2 3 2
2 5 2
13 14 2
14 13 2
16 5 2
17 6 2
17 2 2
18 6 2
1 17 2
2 20 2
2 7 2
25 2 2
3 1 1
1 3 1
5 2 1
1 8 1
8 1 1
1 9 1
9 1 1
2 10 1
10 11 1
11 12 1
12 13 1
13 3 1
2 13 1
13 2 1
1 15 1
15 7 1
2 16 1
5 16 1
5 17 1
2 18 1
6 17 1
1 18 1
2 19 1
19 6 1
1 20 1
20 1 1
20 2 1
20 6 1
7 21 1
21 1 1
1 22 1
22 1 1
1 23 1
23 7 1
6 5 1
5 7 1
5 24 1
24 5 1
5 25 1
25 26 1
26 28 1
28 27 1
27 28 1
28 2 1
25 28 1
1 28 1
28 1 1
2 28 1
