6 8 22
8 6 18
8 39 12
28 39 9
8 28 9
39 8 8
39 28 7
28 8 6
8 12 5
12 39 5
39 12 5
10 8 4
39 6 4
8 7 3
8 10 3
6 12 3
27 28 3
28 30 3
30 28 3
7 39 3
39 31 3
39 32 3
6 39 3
12 8 3
11 8 2
18 6 2
12 6 2
28 29 2
32 8 2
28 9 2
9 28 2
28 6 2
8 34 2
6 35 2
35 6 2
28 32 2
32 28 2
42 8 2
28 7 2
39 27 2
6 45 2
28 27 2
39 36 2
36 39 2
1 2 1
2 3 1
3 2 1
2 4 1
4 5 1
5 6 1
6 7 1
7 8 1
7 9 1
9 10 1
8 11 1
12 13 1
13 8 1
12 14 1
14 15 1
15 12 1
12 16 1
16 12 1
12 17 1
17 18 1
6 18 1
6 19 1
19 12 1
12 20 1
20 6 1
6 21 1
21 12 1
12 22 1
22 6 1
6 23 1
23 24 1
24 25 1
25 24 1
24 26 1
26 8 1
7 27 1
29 28 1
30 8 1
7 31 1
31 32 1
8 30 1
6 33 1
33 6 1
34 6 1
34 8 1
6 36 1
36 6 1
6 37 1
37 8 1
8 38 1
38 39 1
32 40 1
40 41 1
41 6 1
8 42 1
31 7 1
31 28 1
39 11 1
39 43 1
43 42 1
8 44 1
44 28 1
31 39 1
45 6 1
45 8 1
8 46 1
46 32 1
32 39 1
8 47 1
47 6 1
39 48 1
48 6 1
27 30 1
30 27 1
27 8 1
8 27 1
29 39 1
32 31 1
31 8 1
8 49 1
49 8 1
12 28 1
39 50 1
50 30 1
30 39 1
27 39 1
27 6 1
6 51 1
51 6 1
12 31 1
31 52 1
52 12 1
12 49 1
49 12 1
39 53 1
53 54 1
54 8 1
39 55 1
55 39 1
39 56 1
56 57 1
57 12 1
12 58 1
58 8 1
6 59 1
