53 24 17
24 53 15
16 5 13
27 24 13
24 27 13
5 16 12
5 39 12
24 23 10
39 5 10
53 16 10
23 27 9
65 53 9
53 29 9
23 24 8
29 30 8
30 29 8
27 23 8
16 53 8
53 30 8
29 53 7
30 53 7
16 65 5
53 47 5
47 53 5
5 20 4
12 53 4
53 65 4
56 24 4
20 21 3
21 20 3
20 5 3
12 16 3
5 12 3
12 5 3
30 60 3
65 16 3
53 39 3
24 56 3
83 53 3
53 89 3
89 53 3
53 90 3
115 30 3
30 115 3
125 24 3
5 4 2
13 14 2
15 5 2
29 31 2
16 12 2
5 38 2
38 5 2
47 32 2
32 47 2
47 5 2
5 47 2
47 48 2
48 47 2
54 53 2
53 55 2
57 30 2
60 30 2
60 16 2
53 12 2
53 64 2
66 67 2
39 53 2
83 31 2
85 87 2
53 83 2
53 87 2
87 53 2
31 53 2
90 92 2
90 53 2
16 31 2
101 31 2
102 103 2
103 102 2
23 109 2
109 23 2
113 92 2
92 23 2
24 5 2
5 24 2
24 125 2
99 47 2
1 2 1
2 3 1
3 4 1
4 5 1
4 6 1
6 4 1
4 7 1
7 5 1
4 8 1
8 9 1
9 10 1
10 11 1
11 12 1
12 13 1
14 13 1
14 15 1
5 15 1
5 17 1
17 11 1
11 18 1
18 12 1
12 19 1
19 20 1
20 22 1
22 5 1
20 2 1
2 23 1
23 25 1
25 26 1
26 27 1
27 28 1
28 29 1
31 30 1
30 32 1
32 5 1
5 33 1
33 5 1
5 34 1
34 12 1
5 35 1
35 5 1
5 36 1
36 37 1
37 36 1
36 5 1
39 38 1
38 13 1
13 5 1
5 13 1
13 40 1
40 39 1
5 41 1
41 19 1
19 5 1
39 19 1
19 42 1
42 5 1
39 32 1
32 39 1
39 43 1
43 39 1
39 44 1
44 45 1
45 46 1
46 47 1
47 49 1
49 47 1
47 50 1
50 51 1
51 12 1
12 52 1
52 53 1
53 52 1
52 54 1
53 54 1
55 23 1
27 56 1
56 57 1
30 57 1
30 58 1
58 59 1
59 60 1
53 61 1
61 12 1
16 62 1
62 63 1
63 53 1
64 62 1
62 64 1
64 53 1
53 3 1
3 65 1
65 12 1
12 65 1
65 66 1
67 66 1
67 53 1
53 68 1
68 69 1
69 53 1
39 70 1
70 71 1
71 72 1
72 16 1
64 65 1
53 73 1
73 74 1
74 75 1
75 74 1
74 76 1
76 65 1
16 77 1
77 78 1
78 79 1
79 80 1
80 79 1
79 56 1
24 81 1
81 53 1
53 81 1
81 82 1
82 83 1
31 83 1
83 84 1
84 85 1
85 86 1
86 85 1
87 83 1
31 85 1
87 65 1
65 83 1
53 86 1
86 88 1
88 53 1
53 32 1
32 53 1
55 65 1
89 31 1
31 89 1
89 83 1
53 31 1
16 90 1
90 65 1
65 91 1
91 90 1
92 90 1
90 93 1
93 53 1
90 89 1
83 16 1
31 16 1
31 94 1
94 90 1
90 95 1
95 31 1
31 90 1
92 96 1
96 92 1
92 97 1
97 98 1
98 99 1
99 30 1
29 100 1
100 29 1
29 101 1
101 53 1
53 59 1
59 53 1
53 101 1
31 101 1
31 29 1
29 5 1
5 29 1
53 102 1
102 104 1
104 103 1
103 104 1
104 105 1
105 103 1
102 106 1
106 53 1
53 107 1
107 102 1
103 108 1
108 53 1
53 109 1
109 27 1
23 12 1
53 110 1
110 53 1
24 110 1
110 24 1
24 65 1
65 24 1
23 16 1
16 29 1
16 111 1
111 112 1
112 53 1
65 5 1
5 65 1
53 113 1
23 65 1
65 113 1
23 53 1
30 12 1
12 114 1
114 23 1
23 115 1
115 82 1
82 30 1
30 23 1
23 116 1
116 24 1
24 116 1
116 53 1
16 117 1
117 116 1
116 118 1
118 119 1
119 120 1
120 53 1
24 121 1
121 24 1
24 42 1
42 16 1
29 16 1
30 122 1
122 30 1
29 82 1
82 24 1
27 30 1
29 123 1
123 53 1
53 124 1
124 125 1
24 47 1
47 126 1
126 99 1
47 99 1
47 127 1
127 128 1
128 59 1
59 30 1
30 129 1
129 29 1
30 59 1
59 55 1
55 130 1
130 55 1
