5 11 67
11 17 65
11 5 65
17 11 62
19 11 35
11 19 33
29 30 24
11 29 17
11 28 16
28 11 16
11 21 15
21 11 14
3 11 13
30 11 12
11 3 12
11 43 11
43 11 11
30 29 10
2 3 7
5 18 7
22 21 7
21 22 6
11 22 6
11 18 6
3 2 5
18 5 5
11 25 5
25 11 5
27 11 5
18 11 5
42 11 5
48 11 5
11 54 5
11 27 4
35 11 4
11 35 4
17 3 4
20 11 3
21 20 3
22 11 3
11 23 3
29 11 3
11 6 3
6 11 3
11 42 3
11 48 3
54 11 3
11 58 3
58 11 3
5 9 2
9 10 2
10 9 2
9 5 2
11 20 2
20 21 2
23 21 2
23 11 2
11 31 2
38 11 2
11 39 2
39 17 2
3 17 2
41 42 2
17 5 2
54 55 2
55 54 2
30 5 2
11 62 2
62 11 2
1 2 1
3 4 1
4 2 1
3 5 1
5 6 1
6 7 1
7 6 1
6 8 1
8 5 1
10 5 1
5 10 1
11 12 1
12 13 1
13 14 1
14 15 1
15 16 1
16 15 1
15 11 1
18 19 1
21 23 1
22 23 1
23 22 1
22 24 1
24 23 1
11 26 1
26 27 1
31 11 1
31 19 1
11 32 1
32 11 1
11 33 1
33 11 1
11 34 1
34 11 1
30 35 1
35 36 1
36 11 1
21 37 1
37 38 1
23 38 1
39 11 1
3 39 1
3 40 1
40 11 1
18 41 1
42 41 1
11 44 1
44 45 1
45 46 1
46 45 1
45 47 1
47 11 1
11 45 1
45 11 1
18 38 1
38 48 1
48 5 1
5 48 1
5 49 1
49 11 1
11 50 1
50 51 1
51 11 1
11 52 1
52 5 1
5 53 1
53 11 1
54 56 1
56 11 1
54 42 1
11 57 1
57 11 1
5 30 1
5 28 1
58 5 1
11 59 1
59 3 1
11 60 1
60 11 1
11 61 1
61 62 1
62 63 1
63 11 1
11 64 1
64 65 1
65 11 1
11 66 1
66 67 1
67 8 1
8 35 1
35 27 1
27 35 1
35 3 1
3 48 1
28 68 1
68 58 1
22 69 1
69 11 1
21 70 1
70 5 1
