19 1 19
1 19 18
2 3 15
3 2 14
1 3 12
3 4 11
3 1 10
1 2 9
4 3 9
4 2 9
2 1 8
4 21 8
21 4 8
4 1 7
1 4 7
2 4 6
12 1 4
2 5 4
42 1 4
1 63 4
2 12 3
1 17 3
17 1 3
1 22 3
12 2 3
1 42 3
63 1 3
5 2 2
1 13 2
16 1 2
21 1 2
22 1 2
12 19 2
19 12 2
32 3 2
3 32 2
13 12 2
12 3 2
2 13 2
3 12 2
13 1 2
1 5 1
2 6 1
6 4 1
4 7 1
7 5 1
5 8 1
8 7 1
7 2 1
3 9 1
9 4 1
3 10 1
10 11 1
11 4 1
13 14 1
14 1 1
1 15 1
15 1 1
1 16 1
1 18 1
18 1 1
19 20 1
20 4 1
12 17 1
22 16 1
16 3 1
3 23 1
23 4 1
4 24 1
24 25 1
25 12 1
1 26 1
26 27 1
27 26 1
26 17 1
17 28 1
28 29 1
29 30 1
30 17 1
17 31 1
31 3 1
4 32 1
32 2 1
5 33 1
33 3 1
3 33 1
33 21 1
21 34 1
34 21 1
4 35 1
35 36 1
36 37 1
37 38 1
38 36 1
36 1 1
1 39 1
39 40 1
40 17 1
17 41 1
41 42 1
42 12 1
2 19 1
2 43 1
43 2 1
5 44 1
44 3 1
1 12 1
12 13 1
3 19 1
13 2 1
2 45 1
45 2 1
4 12 1
19 13 1
13 19 1
12 46 1
46 12 1
1 21 1
21 47 1
47 26 1
26 12 1
3 48 1
48 1 1
17 49 1
49 4 1
2 50 1
50 51 1
51 7 1
7 21 1
1 52 1
52 42 1
1 53 1
53 54 1
54 16 1
1 55 1
55 56 1
56 57 1
57 58 1
58 59 1
59 60 1
60 1 1
1 51 1
51 1 1
1 61 1
61 17 1
1 62 1
62 17 1
17 2 1
5 1 1
63 19 1
19 64 1
64 1 1
17 19 1
19 65 1
65 4 1
4 33 1
33 66 1
66 67 1
67 68 1
68 69 1
69 12 1
12 69 1
69 3 1
2 46 1
46 70 1
70 1 1
4 69 1
69 4 1
3 71 1
71 2 1
2 72 1
72 42 1
42 2 1
1 73 1
73 3 1
12 74 1
74 75 1
75 17 1
17 13 1
