21 2 24
2 21 19
28 2 19
2 28 18
5 2 14
2 23 13
2 7 13
23 2 12
2 5 11
7 2 11
2 8 10
8 2 10
2 40 10
33 2 9
39 2 9
40 2 9
2 12 8
2 15 8
15 2 8
22 21 8
2 39 8
6 2 7
7 6 7
2 22 7
2 33 7
12 2 6
12 5 6
27 21 6
3 2 5
2 6 5
6 7 5
21 27 5
28 27 5
2 3 4
5 12 4
27 28 4
2 38 4
38 2 4
18 16 3
16 8 3
20 21 3
23 21 3
21 25 3
21 28 3
21 29 3
2 16 2
17 2 2
17 16 2
16 18 2
8 17 2
21 20 2
21 19 2
25 21 2
2 27 2
27 2 2
29 21 2
28 33 2
2 34 2
34 6 2
6 34 2
34 2 2
40 39 2
2 29 2
1 2 1
2 4 1
4 2 1
2 9 1
9 2 1
2 10 1
10 2 1
2 11 1
11 5 1
2 13 1
13 2 1
2 14 1
14 2 1
16 17 1
2 17 1
8 18 1
16 2 1
2 19 1
19 20 1
19 2 1
21 22 1
21 24 1
24 21 1
21 23 1
25 2 1
2 26 1
26 23 1
19 21 1
29 30 1
30 2 1
2 31 1
31 2 1
28 32 1
32 28 1
28 23 1
23 28 1
34 7 1
7 34 1
7 3 1
2 35 1
35 36 1
36 37 1
37 2 1
39 40 1
2 41 1
41 2 1
2 42 1
42 7 1
29 2 1
29 28 1
