6 7 6
7 6 4
7 9 3
9 7 2
19 7 2
25 7 2
1 2 1
2 3 1
3 4 1
4 5 1
5 6 1
7 8 1
8 9 1
7 10 1
10 11 1
11 7 1
7 12 1
12 7 1
7 13 1
13 6 1
9 14 1
14 15 1
15 16 1
16 17 1
17 18 1
18 9 1
9 8 1
8 19 1
7 20 1
20 9 1
9 10 1
10 6 1
6 9 1
9 21 1
21 19 1
9 22 1
22 23 1
23 9 1
9 24 1
24 25 1
25 26 1
26 9 1
9 6 1
6 27 1
27 28 1
28 29 1
29 7 1
7 30 1
30 31 1
31 32 1
32 7 1
7 25 1
7 33 1
33 34 1
34 7 1
7 27 1
27 7 1
7 35 1
35 7 1
7 31 1
31 36 1
36 27 1
27 37 1
37 38 1
38 25 1
7 39 1
39 25 1
25 40 1
40 35 1
35 41 1
41 25 1
25 42 1
42 43 1
43 44 1
44 27 1
