9 5 147
5 9 138
18 9 66
9 18 63
15 9 60
9 23 58
9 15 51
23 9 51
22 9 39
9 22 39
9 19 27
19 9 26
9 26 21
26 9 21
32 9 21
23 32 16
9 32 15
9 20 15
20 9 14
38 9 13
9 38 12
23 3 12
5 15 11
32 23 11
9 11 10
11 9 10
3 23 10
9 13 9
15 5 9
5 7 8
3 9 8
23 5 8
7 5 7
13 15 7
20 18 7
22 15 7
5 3 7
23 36 7
36 23 7
23 37 7
37 23 7
38 23 7
23 38 7
26 23 7
3 5 7
13 9 6
18 20 6
9 3 6
15 22 6
9 25 6
25 9 6
5 18 6
23 26 6
18 23 6
23 18 5
32 18 5
15 13 4
5 22 4
5 23 4
31 32 4
5 32 4
18 32 4
18 19 3
19 20 3
22 3 3
18 5 3
32 31 3
9 31 3
9 36 3
36 9 3
5 6 2
6 5 2
7 8 2
8 7 2
7 6 2
6 7 2
9 10 2
10 9 2
19 18 2
20 19 2
18 21 2
21 18 2
5 26 2
19 15 2
9 35 2
35 9 2
31 23 2
32 5 2
23 19 2
3 22 2
1 2 1
2 3 1
3 4 1
4 5 1
5 8 1
8 5 1
6 8 1
8 6 1
7 9 1
9 12 1
12 9 1
13 14 1
14 13 1
15 16 1
16 5 1
5 16 1
16 17 1
17 16 1
16 18 1
18 3 1
9 24 1
24 9 1
26 5 1
26 18 1
19 5 1
5 19 1
18 27 1
27 28 1
28 9 1
22 5 1
5 29 1
29 9 1
5 30 1
30 31 1
3 15 1
9 33 1
33 9 1
9 34 1
34 9 1
23 31 1
9 37 1
37 9 1
32 38 1
31 15 1
32 26 1
9 39 1
39 9 1
20 5 1
19 23 1
9 40 1
40 9 1
3 32 1
9 41 1
41 23 1
32 42 1
42 32 1
31 22 1
22 31 1
31 9 1
22 23 1
5 43 1
