11 20 15
20 11 14
15 16 9
11 18 9
16 17 8
18 11 8
18 21 8
22 11 8
11 12 7
12 11 7
21 18 7
11 22 7
17 16 6
16 15 6
11 23 6
17 15 5
23 11 5
16 11 5
18 26 5
26 18 5
4 5 4
15 17 4
11 26 4
26 11 4
11 16 4
18 27 4
5 4 3
11 15 3
15 11 3
13 25 3
25 13 3
27 18 3
11 2 2
2 11 2
11 13 2
13 14 2
14 13 2
18 16 2
23 15 2
1 2 1
2 1 1
1 3 1
3 4 1
5 6 1
6 7 1
7 5 1
5 8 1
8 5 1
5 9 1
9 10 1
10 11 1
14 15 1
17 18 1
13 19 1
19 11 1
20 18 1
16 22 1
15 23 1
16 18 1
18 24 1
24 14 1
13 11 1
27 28 1
28 29 1
29 18 1
21 13 1
13 30 1
