4 15 38
15 82 38
15 4 37
82 15 37
15 106 31
106 15 30
108 15 20
15 108 20
15 24 17
24 15 15
15 81 15
81 15 14
38 15 13
15 38 13
15 31 12
114 15 12
15 114 12
31 15 11
15 16 10
16 15 10
26 15 9
91 15 9
21 15 8
15 26 8
15 91 8
15 19 6
15 21 6
32 33 6
19 15 5
33 32 5
126 15 5
15 126 5
23 15 4
36 33 4
12 15 4
15 12 4
15 64 4
103 15 4
33 31 4
4 12 3
15 17 3
17 15 3
15 23 3
24 26 3
33 36 3
33 37 3
52 53 3
63 15 3
64 15 3
86 87 3
87 86 3
15 103 3
31 33 3
129 130 3
130 131 3
12 4 2
13 4 2
15 25 2
25 15 2
24 25 2
30 31 2
15 39 2
37 33 2
53 52 2
56 15 2
59 19 2
19 24 2
61 15 2
15 63 2
64 63 2
15 74 2
92 15 2
87 94 2
109 82 2
31 10 2
117 15 2
15 117 2
15 124 2
124 15 2
15 129 2
15 36 2
1 2 1
2 3 1
3 4 1
4 5 1
5 6 1
6 7 1
7 8 1
8 9 1
9 10 1
10 11 1
11 4 1
4 13 1
12 13 1
4 14 1
14 15 1
15 18 1
18 15 1
15 20 1
20 21 1
19 21 1
19 22 1
22 23 1
25 24 1
26 24 1
24 27 1
27 24 1
24 23 1
23 28 1
28 15 1
4 29 1
29 30 1
31 32 1
33 34 1
34 35 1
35 36 1
37 38 1
39 38 1
38 40 1
40 15 1
15 41 1
41 31 1
15 42 1
42 37 1
37 36 1
36 37 1
37 43 1
43 12 1
12 38 1
39 15 1
38 44 1
44 39 1
39 4 1
4 45 1
45 46 1
46 47 1
47 48 1
48 15 1
26 49 1
49 50 1
50 51 1
51 52 1
53 15 1
38 54 1
54 15 1
4 55 1
55 56 1
15 56 1
38 57 1
57 38 1
15 58 1
58 56 1
56 44 1
44 38 1
38 4 1
31 38 1
38 10 1
10 44 1
44 59 1
15 59 1
24 19 1
24 60 1
60 4 1
4 25 1
25 61 1
15 62 1
62 63 1
63 64 1
63 37 1
37 65 1
65 66 1
66 15 1
15 33 1
33 67 1
67 15 1
15 68 1
68 67 1
67 68 1
68 15 1
15 69 1
69 70 1
70 71 1
71 72 1
72 71 1
71 73 1
73 24 1
74 15 1
74 75 1
75 19 1
19 76 1
76 15 1
15 77 1
77 78 1
78 15 1
4 79 1
79 80 1
80 15 1
81 82 1
82 81 1
81 83 1
83 84 1
84 85 1
85 86 1
86 88 1
88 86 1
86 89 1
89 86 1
86 15 1
15 90 1
90 82 1
82 91 1
82 92 1
15 93 1
93 87 1
94 87 1
94 95 1
95 96 1
96 97 1
97 98 1
98 99 1
99 100 1
100 92 1
15 101 1
101 102 1
102 15 1
31 103 1
15 104 1
104 15 1
15 105 1
105 15 1
106 107 1
107 108 1
108 109 1
15 95 1
95 33 1
33 10 1
10 110 1
110 33 1
10 111 1
111 10 1
10 112 1
112 31 1
10 95 1
95 30 1
31 4 1
4 31 1
31 113 1
113 106 1
106 114 1
114 115 1
115 108 1
15 61 1
108 116 1
116 117 1
117 108 1
108 118 1
118 119 1
119 120 1
120 121 1
121 122 1
122 123 1
123 15 1
15 125 1
125 126 1
126 10 1
10 114 1
114 82 1
15 109 1
82 127 1
127 15 1
82 128 1
128 4 1
131 132 1
132 15 1
36 4 1
36 106 1
131 15 1
106 82 1
82 106 1
106 4 1
82 4 1
4 129 1
131 129 1
129 131 1
131 4 1
4 82 1
82 133 1
133 120 1
120 128 1
128 33 1
33 82 1
82 33 1
33 15 1
15 134 1
134 24 1
25 135 1
135 27 1
27 136 1
136 137 1
