22 11 26
11 13 25
11 22 24
13 11 22
13 12 15
12 13 14
13 22 13
22 13 13
11 30 10
11 6 8
30 11 8
6 11 7
12 11 7
20 13 7
13 20 7
3 4 6
11 12 6
3 16 6
9 10 5
10 9 5
6 12 5
4 19 5
21 22 5
22 21 5
6 19 5
19 6 5
12 21 5
21 12 5
4 3 4
6 8 4
2 11 4
16 3 4
2 13 4
13 2 4
10 4 4
19 4 4
3 19 4
2 3 3
4 5 3
7 6 3
16 27 3
30 22 3
4 10 3
22 12 3
19 3 3
2 12 2
14 2 2
2 15 2
15 2 2
11 8 2
12 6 2
8 7 2
7 11 2
12 7 2
3 18 2
18 3 2
12 28 2
13 28 2
28 13 2
13 10 2
11 9 2
10 11 2
13 21 2
11 3 2
12 30 2
10 6 2
22 2 2
36 3 2
12 22 2
4 26 2
1 2 1
5 2 1
2 6 1
6 7 1
8 9 1
10 2 1
11 2 1
12 9 1
9 2 1
13 14 1
3 14 1
8 11 1
11 7 1
7 12 1
12 3 1
5 17 1
17 4 1
19 20 1
20 21 1
21 2 1
12 2 1
2 23 1
23 24 1
24 25 1
25 2 1
2 26 1
26 16 1
27 3 1
16 12 1
28 12 1
28 11 1
10 13 1
9 11 1
11 10 1
21 29 1
29 21 1
21 13 1
21 10 1
10 3 1
27 16 1
27 11 1
3 5 1
5 3 1
3 17 1
17 3 1
3 13 1
11 31 1
31 11 1
3 11 1
13 18 1
18 2 1
2 32 1
32 13 1
2 33 1
33 31 1
31 34 1
34 35 1
35 36 1
36 37 1
37 3 1
3 38 1
38 2 1
3 6 1
8 6 1
11 33 1
33 12 1
30 39 1
39 3 1
3 10 1
4 6 1
6 4 1
6 2 1
2 22 1
22 40 1
40 22 1
2 36 1
3 2 1
30 2 1
11 41 1
41 13 1
11 21 1
21 15 1
15 12 1
12 15 1
15 11 1
6 10 1
9 7 1
8 12 1
12 4 1
5 13 1
13 6 1
12 8 1
8 42 1
42 12 1
7 10 1
9 22 1
12 36 1
19 2 1
2 10 1
26 4 1
26 10 1
10 25 1
25 43 1
43 11 1
13 30 1
15 44 1
44 45 1
45 15 1
