8 2 119
2 8 111
8 3 75
3 8 73
2 3 46
3 2 46
37 2 23
2 37 22
20 3 19
23 8 14
3 20 14
8 23 12
10 8 10
3 23 9
23 3 9
3 37 9
1 2 8
37 3 8
2 27 8
2 1 7
2 20 6
22 8 6
27 2 6
8 20 5
8 22 5
23 20 5
31 8 5
8 27 5
8 46 5
46 8 5
77 20 5
20 77 5
62 2 5
8 9 4
9 8 4
3 11 4
11 3 4
20 2 4
2 22 4
26 3 4
11 8 4
2 35 4
8 31 4
3 10 4
27 8 4
2 62 4
3 26 3
8 11 3
20 8 3
46 2 3
8 35 3
2 46 3
72 3 3
2 78 3
31 46 3
46 31 3
17 8 2
26 20 2
27 3 2
27 20 2
23 28 2
3 30 2
30 31 2
20 10 2
2 23 2
8 37 2
37 38 2
39 37 2
2 26 2
26 2 2
30 2 2
10 2 2
49 46 2
46 20 2
8 54 2
54 8 2
57 3 2
3 57 2
35 10 2
35 2 2
71 2 2
53 72 2
3 73 2
35 8 2
78 2 2
57 46 2
84 8 2
2 10 2
2 86 2
87 3 2
3 4 1
4 5 1
5 6 1
6 3 1
3 7 1
7 8 1
8 10 1
8 12 1
12 8 1
8 13 1
13 8 1
8 14 1
14 8 1
8 15 1
15 10 1
2 16 1
16 17 1
8 18 1
18 8 1
8 19 1
19 2 1
20 21 1
21 8 1
2 24 1
24 8 1
22 25 1
25 3 1
20 27 1
3 25 1
25 27 1
20 26 1
20 23 1
28 8 1
28 23 1
23 22 1
22 23 1
22 29 1
29 23 1
31 27 1
2 32 1
32 3 1
8 33 1
33 3 1
3 34 1
34 2 1
35 11 1
11 2 1
2 11 1
8 36 1
36 23 1
23 30 1
38 37 1
38 3 1
37 39 1
37 26 1
20 22 1
8 26 1
27 37 1
37 8 1
2 40 1
40 2 1
35 23 1
3 41 1
41 3 1
20 41 1
41 2 1
23 42 1
42 23 1
10 27 1
27 43 1
43 8 1
20 44 1
44 10 1
8 45 1
45 8 1
8 47 1
47 8 1
8 48 1
48 8 1
8 39 1
37 23 1
2 49 1
3 50 1
50 8 1
8 51 1
51 26 1
26 8 1
35 17 1
20 52 1
52 20 1
20 46 1
46 49 1
8 53 1
53 8 1
2 55 1
55 27 1
27 55 1
55 2 1
8 56 1
56 2 1
2 57 1
3 53 1
53 3 1
57 2 1
2 58 1
58 2 1
8 59 1
59 8 1
22 60 1
60 61 1
61 62 1
62 63 1
63 62 1
62 30 1
30 63 1
63 3 1
3 64 1
64 2 1
2 65 1
65 3 1
3 66 1
66 10 1
8 67 1
67 2 1
27 23 1
3 49 1
49 68 1
68 12 1
12 69 1
69 70 1
70 10 1
10 35 1
35 71 1
2 72 1
72 53 1
3 72 1
73 72 1
73 53 1
72 74 1
74 75 1
75 76 1
76 73 1
73 30 1
8 71 1
3 35 1
8 77 1
77 23 1
78 31 1
31 23 1
23 31 1
31 2 1
2 79 1
79 2 1
2 31 1
31 35 1
22 80 1
80 57 1
46 57 1
46 81 1
81 2 1
3 82 1
82 10 1
10 83 1
83 8 1
3 62 1
2 84 1
8 84 1
10 85 1
85 8 1
86 2 1
2 87 1
3 87 1
86 3 1
