2 8 46
8 2 45
2 63 9
63 2 8
26 2 6
8 9 5
34 8 5
8 34 5
2 26 4
2 11 3
11 2 3
15 8 3
2 25 3
5 2 2
2 5 2
9 8 2
10 8 2
8 10 2
11 8 2
8 11 2
8 7 2
8 20 2
20 8 2
7 2 2
25 2 2
2 30 2
25 26 2
2 34 2
46 2 2
1 2 1
2 3 1
3 2 1
2 4 1
4 5 1
2 6 1
6 2 1
5 7 1
7 8 1
9 10 1
10 2 1
8 12 1
12 8 1
8 13 1
13 2 1
8 14 1
14 8 1
2 15 1
15 16 1
16 2 1
2 17 1
17 8 1
8 18 1
18 8 1
7 19 1
19 8 1
8 21 1
21 15 1
8 22 1
22 8 1
2 23 1
23 8 1
8 24 1
24 7 1
2 27 1
27 28 1
28 8 1
9 29 1
29 8 1
26 30 1
30 31 1
31 2 1
30 2 1
30 32 1
32 8 1
8 33 1
33 34 1
9 34 1
34 35 1
35 36 1
36 37 1
37 35 1
35 26 1
26 35 1
35 2 1
2 38 1
38 26 1
26 39 1
39 40 1
40 41 1
41 2 1
8 26 1
8 42 1
42 43 1
43 44 1
44 45 1
45 26 1
8 46 1
46 8 1
34 47 1
47 26 1
26 48 1
48 49 1
49 50 1
50 8 1
8 51 1
51 52 1
52 53 1
53 54 1
54 34 1
34 55 1
55 8 1
34 2 1
26 25 1
2 56 1
56 2 1
2 57 1
57 58 1
58 59 1
59 60 1
60 61 1
61 62 1
62 8 1
63 34 1
8 64 1
64 8 1
34 65 1
65 34 1
34 66 1
66 8 1
8 65 1
65 67 1
67 8 1
63 15 1
8 68 1
68 2 1
8 69 1
69 8 1
8 15 1
8 70 1
70 71 1
71 15 1
15 72 1
72 73 1
73 63 1
34 74 1
74 75 1
75 34 1
34 46 1
2 46 1
2 76 1
76 77 1
77 2 1
2 78 1
78 79 1
79 80 1
80 81 1
81 2 1
2 82 1
82 15 1
15 2 1
2 69 1
69 2 1
2 83 1
83 2 1
2 84 1
84 2 1
2 85 1
85 86 1
