5 29 73
29 5 72
5 18 47
39 5 45
5 39 44
18 5 41
30 38 30
38 30 27
11 5 25
29 30 24
30 29 22
30 5 21
5 11 20
27 14 20
38 5 20
14 27 18
5 30 17
5 38 17
18 30 14
18 29 12
29 27 12
5 23 12
23 5 12
12 21 11
21 12 11
12 29 11
18 39 11
23 20 11
27 29 10
29 12 10
21 23 9
29 18 9
39 18 9
5 45 9
14 11 9
27 11 9
11 27 9
20 23 8
45 5 8
30 18 7
38 18 7
11 14 7
23 21 7
54 38 7
38 29 7
5 14 6
12 24 6
21 18 6
38 54 6
29 38 6
14 5 5
24 12 5
18 38 5
18 21 5
5 12 4
12 25 4
5 27 4
45 23 4
48 38 4
50 48 4
38 48 4
38 20 4
20 38 4
5 10 3
23 12 3
12 5 3
25 12 3
48 51 3
23 38 3
55 38 3
29 54 3
26 27 3
24 29 3
20 21 2
12 23 2
24 11 2
36 5 2
10 18 2
39 30 2
23 45 2
38 49 2
49 38 2
38 50 2
51 38 2
48 50 2
38 23 2
20 5 2
12 10 2
10 12 2
38 55 2
54 29 2
29 55 2
55 29 2
27 26 2
5 24 2
29 24 2
10 5 2
1 2 1
2 3 1
3 4 1
4 5 1
5 6 1
6 7 1
7 8 1
8 9 1
9 5 1
10 11 1
12 11 1
11 13 1
13 5 1
14 15 1
15 16 1
16 17 1
17 11 1
11 18 1
5 19 1
19 20 1
21 22 1
22 12 1
23 11 1
11 21 1
25 16 1
16 26 1
26 12 1
11 24 1
24 14 1
27 28 1
28 29 1
29 31 1
31 5 1
5 32 1
32 18 1
29 33 1
33 34 1
34 5 1
27 5 1
14 12 1
12 35 1
35 34 1
34 36 1
30 11 1
11 37 1
37 38 1
39 10 1
18 40 1
40 5 1
5 40 1
40 18 1
39 41 1
41 42 1
42 20 1
23 43 1
43 11 1
27 18 1
30 39 1
27 24 1
24 27 1
27 44 1
44 5 1
23 46 1
46 23 1
5 36 1
29 45 1
23 47 1
47 5 1
30 14 1
11 39 1
39 48 1
50 38 1
38 51 1
49 50 1
50 49 1
49 48 1
48 49 1
51 50 1
51 48 1
48 45 1
5 21 1
18 23 1
5 52 1
52 53 1
53 52 1
52 23 1
12 54 1
54 55 1
38 56 1
56 29 1
18 57 1
57 39 1
27 21 1
20 58 1
58 23 1
21 26 1
14 20 1
20 14 1
14 23 1
23 14 1
14 59 1
59 11 1
30 10 1
10 23 1
20 60 1
60 61 1
61 27 1
27 12 1
29 62 1
62 29 1
5 63 1
63 10 1
5 8 1
8 39 1
45 64 1
64 12 1
12 20 1
5 65 1
65 5 1
29 66 1
66 67 1
67 68 1
68 29 1
