16 9 44
9 16 41
9 10 18
10 9 15
21 20 8
20 21 8
14 9 7
9 14 7
10 19 6
19 10 6
18 14 5
14 18 5
14 16 4
9 17 3
17 9 3
10 18 3
18 10 3
10 14 3
19 14 3
11 12 2
16 14 2
14 19 2
20 18 2
20 9 2
22 19 2
19 9 2
16 10 2
9 25 2
25 22 2
9 19 2
1 2 1
2 3 1
3 1 1
1 4 1
4 5 1
5 1 1
1 6 1
6 7 1
7 8 1
8 9 1
9 11 1
12 11 1
12 9 1
10 13 1
13 14 1
9 15 1
15 9 1
19 20 1
14 10 1
18 16 1
9 21 1
14 22 1
22 23 1
23 19 1
19 22 1
10 20 1
21 9 1
16 24 1
24 9 1
14 25 1
25 26 1
26 16 1
9 27 1
27 16 1
16 28 1
28 16 1
22 9 1
16 29 1
29 16 1
9 29 1
29 20 1
10 30 1
30 14 1
14 20 1
21 18 1
18 21 1
18 20 1
20 16 1
9 31 1
