25 2 65
2 25 62
2 6 30
34 2 26
6 2 25
2 34 25
2 8 23
21 2 22
2 21 22
8 2 21
2 3 13
3 2 13
13 2 13
2 11 12
20 2 11
30 25 11
11 2 10
2 20 10
25 30 10
2 13 9
2 10 8
2 16 8
17 2 8
10 2 7
13 15 7
15 13 7
40 2 6
16 13 5
13 17 5
2 19 5
2 17 5
2 15 5
16 2 5
2 36 5
36 2 5
2 40 5
10 6 4
6 10 4
17 13 4
15 17 4
32 25 4
25 32 4
6 8 4
14 13 3
13 24 3
15 2 3
24 2 3
2 24 3
19 2 3
30 31 3
31 30 3
8 34 3
37 2 3
38 39 3
6 3 2
3 7 2
2 9 2
9 2 2
13 16 2
19 20 2
17 15 2
17 16 2
16 17 2
24 13 2
20 25 2
27 2 2
28 2 2
2 30 2
8 6 2
34 9 2
35 2 2
6 34 2
34 6 2
2 37 2
2 38 2
39 38 2
1 2 1
3 4 1
4 3 1
3 5 1
5 3 1
3 6 1
7 3 1
7 2 1
11 12 1
12 2 1
11 13 1
13 14 1
16 15 1
2 14 1
2 18 1
18 2 1
2 12 1
12 13 1
10 20 1
20 18 1
18 21 1
21 22 1
22 23 1
23 2 1
2 23 1
23 14 1
15 16 1
21 13 1
24 16 1
15 24 1
24 17 1
13 18 1
18 20 1
25 26 1
26 25 1
20 15 1
25 27 1
2 28 1
2 29 1
29 2 1
25 28 1
28 27 1
31 2 1
2 31 1
30 28 1
16 25 1
25 21 1
13 20 1
6 25 1
17 32 1
25 33 1
33 25 1
32 2 1
9 34 1
9 6 1
6 35 1
2 35 1
34 8 1
8 25 1
8 37 1
39 2 1
38 34 1
34 38 1
38 2 1
6 40 1
2 41 1
