2 30 64
30 20 61
30 2 59
20 30 56
20 2 55
2 20 48
3 4 17
4 3 15
2 6 14
6 20 13
6 2 13
20 41 10
3 20 9
20 6 9
41 20 9
2 7 7
2 9 6
9 2 6
7 2 6
20 3 6
20 5 6
30 3 6
3 30 6
5 20 5
3 6 4
25 16 4
16 25 4
2 3 3
6 3 3
7 3 3
13 6 3
6 13 3
20 4 3
20 7 3
22 2 3
18 35 3
36 3 3
30 16 3
7 17 3
19 30 3
30 19 3
45 30 3
30 45 3
45 20 3
30 46 3
46 30 3
5 3 2
3 7 2
12 2 2
2 13 2
5 18 2
4 20 2
3 11 2
2 22 2
17 25 2
27 20 2
20 27 2
32 20 2
3 25 2
35 30 2
5 30 2
30 35 2
35 18 2
30 18 2
3 36 2
30 9 2
35 5 2
20 12 2
17 2 2
16 30 2
20 45 2
1 2 1
3 5 1
6 7 1
7 6 1
6 8 1
8 2 1
2 10 1
10 6 1
6 11 1
11 12 1
9 12 1
12 3 1
4 9 1
13 14 1
14 2 1
7 15 1
15 16 1
16 6 1
6 17 1
17 5 1
18 19 1
19 3 1
3 21 1
21 3 1
11 6 1
7 19 1
19 7 1
7 22 1
2 23 1
23 2 1
20 24 1
24 6 1
2 4 1
4 17 1
25 17 1
25 6 1
6 5 1
5 6 1
20 26 1
26 27 1
27 5 1
5 2 1
2 28 1
28 20 1
2 29 1
29 2 1
20 31 1
31 30 1
30 32 1
7 25 1
25 32 1
9 30 1
11 3 1
3 16 1
16 3 1
25 3 1
25 2 1
20 14 1
14 19 1
19 5 1
20 18 1
18 20 1
20 19 1
19 33 1
33 34 1
34 5 1
18 30 1
35 36 1
16 19 1
19 37 1
37 30 1
3 35 1
35 3 1
20 35 1
35 19 1
19 17 1
17 35 1
4 38 1
38 30 1
30 12 1
12 39 1
39 20 1
12 30 1
9 20 1
17 7 1
3 40 1
40 20 1
5 35 1
18 3 1
4 7 1
2 12 1
12 20 1
41 42 1
42 7 1
2 43 1
43 2 1
2 19 1
19 44 1
44 45 1
30 17 1
17 19 1
19 47 1
47 20 1
13 2 1
