9 5 20
5 9 17
9 12 13
14 12 12
12 9 11
12 5 11
5 12 10
12 14 10
14 20 10
16 14 10
14 16 10
5 6 9
6 5 8
14 9 8
9 14 8
20 14 8
20 9 7
24 9 7
12 16 6
9 20 6
5 16 6
5 14 5
16 9 5
4 5 4
12 4 4
9 4 4
14 5 4
16 20 4
16 5 4
9 24 4
4 9 3
15 16 3
22 5 3
16 12 3
20 12 3
5 24 3
20 16 3
8 9 2
5 4 2
5 13 2
13 5 2
4 12 2
16 15 2
16 17 2
5 22 2
4 14 2
23 9 2
9 16 2
6 12 2
20 5 2
12 20 2
1 2 1
2 3 1
3 4 1
5 7 1
7 8 1
9 8 1
9 10 1
10 11 1
11 12 1
9 15 1
17 16 1
15 14 1
14 18 1
18 9 1
9 19 1
19 20 1
20 21 1
21 20 1
9 22 1
6 14 1
12 15 1
14 4 1
5 23 1
9 23 1
9 6 1
20 24 1
24 16 1
16 24 1
12 6 1
24 5 1
12 24 1
24 14 1
5 20 1
5 25 1
25 12 1
9 26 1
26 9 1
17 27 1
27 5 1
16 4 1
4 28 1
28 22 1
22 9 1
4 29 1
29 30 1
30 31 1
31 32 1
