7 12 32
10 7 29
2 1 28
7 10 27
12 7 27
1 2 26
9 6 23
9 7 21
6 7 20
7 9 20
6 9 19
7 6 15
12 9 15
10 9 12
9 10 12
9 12 12
4 1 11
2 4 11
14 1 11
10 6 10
1 14 10
6 10 9
6 12 9
1 4 8
4 2 8
12 6 8
37 2 7
12 10 6
10 12 6
2 37 5
12 48 5
14 2 4
7 2 4
4 14 4
14 4 4
2 9 4
2 14 4
29 2 4
48 7 4
48 12 4
10 17 3
17 10 3
6 17 3
17 12 3
1 17 3
17 1 3
1 25 3
12 19 3
2 10 3
7 48 3
1 6 2
7 16 2
17 9 2
9 17 2
17 6 2
12 17 2
1 20 2
20 1 2
23 1 2
1 23 2
25 1 2
2 29 2
9 2 2
2 11 2
11 1 2
19 12 2
11 12 2
7 1 2
47 7 2
7 47 2
1 3 1
3 2 1
4 5 1
5 1 1
7 8 1
8 7 1
9 11 1
11 10 1
9 13 1
13 14 1
2 6 1
12 15 1
15 6 1
16 6 1
6 18 1
18 9 1
16 7 1
1 19 1
19 4 1
1 21 1
21 1 1
1 22 1
22 23 1
23 7 1
12 2 1
2 24 1
24 2 1
25 4 1
7 26 1
26 7 1
12 27 1
27 7 1
19 9 1
2 28 1
28 2 1
1 30 1
30 9 1
12 31 1
31 12 1
6 1 1
6 2 1
1 32 1
32 12 1
12 11 1
12 33 1
33 10 1
2 7 1
1 34 1
34 2 1
1 12 1
9 35 1
35 2 1
2 36 1
36 2 1
2 38 1
38 37 1
10 38 1
38 2 1
4 37 1
10 2 1
7 39 1
39 9 1
9 40 1
40 10 1
10 11 1
1 41 1
41 42 1
42 43 1
43 1 1
1 44 1
44 45 1
45 7 1
12 46 1
46 7 1
1 47 1
47 11 1
7 49 1
49 29 1
1 7 1
7 50 1
50 29 1
11 2 1
2 12 1
