4 3 63
3 4 62
3 9 19
9 3 18
11 3 18
3 11 17
24 3 17
3 24 16
4 11 16
11 4 14
4 6 12
18 4 11
4 18 11
6 3 10
3 6 10
18 3 10
3 18 10
6 4 10
2 4 9
4 2 8
3 12 8
2 3 7
8 4 7
12 3 7
3 2 6
18 20 6
3 8 5
4 8 5
8 3 4
13 3 4
3 23 4
23 3 4
6 2 4
20 18 4
3 13 3
2 6 3
28 27 3
9 4 3
4 9 3
3 14 2
14 15 2
20 4 2
18 22 2
18 23 2
23 18 2
4 25 2
25 24 2
27 28 2
27 4 2
4 27 2
6 30 2
18 32 2
32 18 2
18 16 2
1 2 1
3 5 1
5 6 1
3 7 1
7 3 1
6 8 1
3 10 1
10 3 1
12 13 1
15 3 1
15 4 1
4 13 1
13 16 1
16 4 1
4 17 1
17 3 1
3 17 1
17 18 1
3 1 1
1 4 1
4 19 1
19 3 1
3 20 1
9 20 1
20 3 1
18 21 1
21 18 1
22 18 1
22 3 1
3 22 1
22 4 1
6 24 1
24 25 1
24 16 1
16 26 1
26 16 1
16 25 1
25 4 1
25 3 1
24 4 1
11 6 1
6 11 1
11 24 1
3 27 1
4 28 1
27 29 1
29 28 1
28 18 1
27 18 1
20 6 1
30 31 1
31 6 1
30 6 1
6 18 1
16 18 1
16 9 1
