9 10 35
10 9 35
9 12 25
12 9 21
33 9 16
9 33 16
25 9 11
9 25 10
29 9 10
32 9 10
9 29 9
9 32 9
19 9 8
9 16 6
16 9 6
9 19 6
9 31 6
31 9 5
7 8 4
18 16 4
16 18 4
8 7 3
18 9 3
9 18 3
9 26 3
26 9 3
9 11 3
11 9 3
41 9 3
9 45 3
6 9 2
12 13 2
10 25 2
12 26 2
26 10 2
35 9 2
38 9 2
40 19 2
9 41 2
9 4 2
4 19 2
19 32 2
45 9 2
1 2 1
2 3 1
3 4 1
4 5 1
5 6 1
6 7 1
8 6 1
10 11 1
11 10 1
13 12 1
13 14 1
14 12 1
12 15 1
15 12 1
12 6 1
9 6 1
6 16 1
16 17 1
17 18 1
18 19 1
19 20 1
20 19 1
19 21 1
21 9 1
9 22 1
22 9 1
9 23 1
23 9 1
10 24 1
24 10 1
25 10 1
25 26 1
26 12 1
10 27 1
27 9 1
10 26 1
26 28 1
28 9 1
9 30 1
30 29 1
29 32 1
32 29 1
29 12 1
12 10 1
31 33 1
33 19 1
19 33 1
33 4 1
4 33 1
33 25 1
9 34 1
34 35 1
9 35 1
9 36 1
36 9 1
9 37 1
37 38 1
38 39 1
39 12 1
12 38 1
9 38 1
12 40 1
19 40 1
19 41 1
9 42 1
42 43 1
43 33 1
4 44 1
44 12 1
12 4 1
32 19 1
45 4 1
4 9 1
33 46 1
46 47 1
47 9 1
9 48 1
48 9 1
12 19 1
9 49 1
49 29 1
9 50 1
50 51 1
51 29 1
29 33 1
33 52 1
52 53 1
53 54 1
54 52 1
52 54 1
54 19 1
19 37 1
37 19 1
