12 47 25
47 12 24
12 38 22
10 12 21
38 12 20
12 10 19
12 32 15
32 12 14
9 12 12
12 9 11
32 9 11
9 32 11
10 11 8
12 23 7
12 11 7
29 12 7
32 38 7
11 10 6
23 12 6
11 12 6
12 29 6
38 32 6
41 12 6
9 20 6
9 10 5
10 9 5
20 12 5
12 51 5
51 12 5
12 14 4
14 12 4
12 20 4
10 23 4
24 12 4
23 10 4
46 12 4
12 41 4
20 9 4
5 10 3
10 17 3
17 10 3
12 24 3
23 16 3
12 27 3
12 46 3
63 12 3
4 5 2
5 6 2
6 5 2
12 13 2
12 15 2
15 12 2
10 5 2
16 23 2
27 12 2
12 31 2
32 33 2
31 32 2
39 40 2
40 39 2
32 44 2
55 12 2
12 55 2
12 63 2
67 63 2
1 2 1
2 3 1
3 4 1
5 4 1
5 7 1
7 8 1
8 9 1
11 9 1
13 9 1
12 5 1
10 16 1
16 10 1
10 18 1
18 19 1
19 10 1
10 20 1
20 21 1
21 22 1
22 20 1
20 10 1
23 24 1
16 12 1
12 25 1
25 12 1
10 26 1
26 10 1
27 23 1
11 23 1
23 11 1
9 28 1
28 11 1
11 29 1
29 30 1
30 29 1
31 12 1
33 12 1
12 34 1
34 12 1
12 35 1
35 12 1
32 36 1
36 32 1
32 19 1
19 37 1
37 32 1
32 37 1
37 12 1
32 29 1
29 31 1
12 39 1
39 41 1
12 42 1
42 32 1
33 43 1
43 32 1
44 32 1
44 12 1
12 30 1
30 45 1
45 12 1
12 45 1
45 46 1
12 48 1
48 49 1
49 32 1
47 50 1
50 12 1
38 52 1
52 12 1
38 53 1
53 12 1
12 54 1
54 55 1
12 56 1
56 12 1
12 57 1
57 12 1
55 41 1
41 58 1
58 41 1
41 59 1
59 41 1
38 60 1
60 10 1
11 61 1
61 10 1
11 48 1
48 9 1
20 13 1
13 10 1
10 62 1
62 5 1
5 32 1
32 5 1
5 12 1
63 10 1
12 64 1
64 65 1
65 63 1
12 66 1
66 63 1
63 67 1
63 66 1
66 67 1
13 12 1
12 68 1
68 69 1
69 12 1
12 69 1
