7 22 11
22 7 10
50 22 10
22 21 8
22 50 6
65 22 5
22 80 5
21 22 4
35 22 4
22 35 4
21 65 4
80 22 4
22 79 3
22 81 3
81 22 3
22 65 3
94 22 3
21 35 2
22 45 2
45 22 2
54 21 2
21 66 2
35 50 2
50 65 2
65 54 2
78 22 2
65 21 2
33 98 2
22 94 2
107 21 2
1 2 1
2 3 1
3 1 1
1 4 1
4 5 1
5 6 1
6 7 1
7 8 1
8 7 1
7 9 1
9 10 1
10 11 1
11 12 1
12 13 1
13 14 1
14 15 1
15 16 1
16 17 1
17 18 1
18 19 1
19 20 1
20 21 1
22 23 1
23 24 1
24 22 1
22 25 1
25 26 1
26 22 1
22 27 1
27 28 1
28 29 1
29 21 1
21 18 1
18 7 1
7 30 1
30 31 1
31 32 1
32 33 1
33 32 1
32 34 1
34 22 1
22 32 1
32 35 1
35 36 1
36 32 1
32 37 1
37 22 1
22 38 1
38 39 1
39 40 1
40 41 1
41 42 1
42 41 1
41 43 1
43 41 1
41 44 1
44 21 1
22 46 1
46 21 1
7 47 1
47 22 1
22 48 1
48 7 1
7 49 1
49 35 1
35 7 1
22 47 1
47 50 1
50 7 1
7 51 1
51 22 1
35 52 1
52 21 1
21 53 1
53 54 1
21 33 1
33 21 1
22 55 1
55 22 1
22 56 1
56 57 1
57 35 1
35 58 1
58 22 1
22 59 1
59 22 1
21 60 1
60 21 1
21 61 1
61 62 1
62 63 1
63 64 1
64 65 1
66 67 1
67 20 1
20 68 1
68 7 1
7 69 1
69 22 1
66 21 1
21 70 1
70 7 1
22 71 1
71 72 1
72 73 1
73 22 1
22 67 1
67 74 1
74 35 1
54 22 1
65 61 1
61 75 1
75 35 1
35 76 1
76 77 1
77 78 1
79 67 1
67 22 1
21 80 1
80 50 1
22 82 1
82 67 1
67 83 1
83 22 1
81 84 1
84 81 1
22 85 1
85 22 1
22 86 1
86 22 1
22 87 1
87 81 1
81 88 1
88 61 1
61 89 1
89 7 1
7 90 1
90 7 1
35 78 1
78 91 1
91 50 1
50 67 1
67 92 1
92 22 1
22 93 1
93 94 1
94 95 1
95 96 1
96 97 1
97 33 1
98 22 1
22 95 1
95 22 1
22 33 1
98 97 1
97 94 1
22 99 1
99 22 1
22 100 1
100 101 1
101 22 1
22 102 1
102 33 1
33 35 1
22 103 1
103 22 1
7 104 1
104 105 1
105 106 1
106 22 1
21 107 1
21 108 1
108 22 1
22 109 1
109 33 1
33 22 1
22 78 1
65 50 1
22 110 1
110 22 1
22 107 1
21 50 1
22 111 1
111 112 1
112 22 1
22 113 1
113 22 1
22 114 1
114 22 1
79 22 1
22 115 1
115 116 1
116 50 1
50 117 1
117 22 1
22 118 1
118 22 1
22 119 1
119 120 1
120 35 1
35 121 1
121 65 1
22 122 1
122 123 1
123 124 1
124 50 1
79 125 1
125 50 1
50 78 1
78 126 1
126 50 1
50 127 1
127 22 1
80 123 1
123 128 1
128 22 1
22 129 1
129 22 1
22 74 1
74 22 1
