11 19 50
19 11 50
11 15 24
15 11 24
21 11 18
11 21 18
11 17 13
17 11 13
19 21 12
21 19 9
47 11 9
57 11 8
11 57 7
8 6 6
6 8 6
21 24 6
11 22 5
11 47 5
11 9 4
11 8 4
19 20 4
20 19 4
22 21 4
19 23 4
23 19 4
24 21 4
41 42 4
11 45 4
15 19 4
1 2 3
13 14 3
21 22 3
22 11 3
8 11 3
24 11 3
17 21 3
8 29 3
29 8 3
11 4 3
19 17 3
42 11 3
11 42 3
42 41 3
11 41 3
2 1 2
9 11 2
14 11 2
15 16 2
17 15 2
11 18 2
18 11 2
24 19 2
11 25 2
30 8 2
8 30 2
21 17 2
11 34 2
35 11 2
11 35 2
20 11 2
17 19 2
19 22 2
43 41 2
45 11 2
41 11 2
19 15 2
54 55 2
55 11 2
11 55 2
55 54 2
2 3 1
3 4 1
4 5 1
5 6 1
6 7 1
7 8 1
8 9 1
9 10 1
10 11 1
9 12 1
12 11 1
9 13 1
14 13 1
11 13 1
16 17 1
15 17 1
16 15 1
8 19 1
21 4 1
4 21 1
24 25 1
25 24 1
25 26 1
26 27 1
27 28 1
28 11 1
25 29 1
29 30 1
29 31 1
31 8 1
30 32 1
32 8 1
8 32 1
32 29 1
8 33 1
33 11 1
19 24 1
17 24 1
11 24 1
34 11 1
34 35 1
35 36 1
36 11 1
22 37 1
37 11 1
4 11 1
11 38 1
38 20 1
11 39 1
39 19 1
21 34 1
34 40 1
40 19 1
22 8 1
8 41 1
11 43 1
41 44 1
44 11 1
22 45 1
45 43 1
41 8 1
8 46 1
46 11 1
15 8 1
8 15 1
15 47 1
21 20 1
11 48 1
48 11 1
45 44 1
44 43 1
43 42 1
11 49 1
49 15 1
17 12 1
12 22 1
22 47 1
47 50 1
50 51 1
51 47 1
47 42 1
42 44 1
44 45 1
45 15 1
41 15 1
42 22 1
21 41 1
41 19 1
19 45 1
45 17 1
42 21 1
21 44 1
44 47 1
4 44 1
44 21 1
45 50 1
50 21 1
21 47 1
4 52 1
52 47 1
22 17 1
17 53 1
53 17 1
21 54 1
54 11 1
11 54 1
54 22 1
22 56 1
56 57 1
