5 2 102
2 5 100
5 6 49
6 5 48
13 5 27
5 13 26
2 22 26
22 2 24
18 2 23
2 18 22
2 33 14
22 5 14
33 2 12
5 22 12
5 39 11
39 2 11
39 5 10
2 39 10
2 3 7
3 5 7
17 2 7
2 17 7
5 9 6
2 24 6
24 2 6
5 31 6
5 38 6
9 5 5
12 5 5
31 5 5
18 22 5
38 5 5
5 3 4
3 2 4
5 12 4
22 18 4
12 6 3
13 12 3
12 13 3
6 12 3
17 18 3
26 2 3
2 6 3
6 2 3
2 34 3
34 2 3
38 2 3
40 2 3
2 41 3
8 5 2
13 6 2
5 17 2
19 5 2
5 20 2
5 21 2
21 5 2
2 26 2
2 13 2
27 2 2
2 38 2
2 40 2
41 2 2
42 33 2
33 42 2
42 2 2
1 2 1
3 4 1
4 3 1
6 7 1
7 6 1
6 8 1
9 10 1
10 11 1
11 5 1
2 12 1
5 14 1
14 12 1
6 15 1
15 5 1
12 3 1
3 16 1
16 5 1
18 17 1
18 19 1
5 19 1
5 8 1
20 5 1
20 2 1
22 23 1
23 18 1
2 25 1
25 24 1
24 26 1
5 18 1
2 27 1
2 28 1
28 5 1
5 27 1
18 5 1
5 29 1
29 5 1
2 30 1
30 31 1
31 9 1
9 2 1
2 32 1
32 2 1
2 35 1
35 2 1
5 36 1
36 5 1
2 37 1
37 2 1
5 40 1
41 5 1
5 24 1
24 18 1
18 23 1
23 24 1
24 23 1
23 2 1
6 22 1
22 13 1
31 42 1
33 18 1
18 42 1
33 43 1
43 2 1
2 44 1
44 2 1
2 45 1
45 3 1
3 21 1
21 46 1
46 1 1
