7 1 53
1 7 51
1 23 45
23 1 42
23 10 35
10 23 35
11 24 28
24 11 26
10 11 14
1 10 14
11 10 13
10 1 12
13 10 8
29 21 7
10 13 7
21 29 6
8 7 4
24 35 4
30 10 4
5 6 3
7 6 3
14 10 3
11 23 3
23 7 3
28 23 3
23 28 3
35 11 3
39 1 3
23 19 3
19 23 3
10 30 3
35 24 3
4 5 2
6 5 2
6 4 2
5 7 2
7 5 2
10 14 2
21 1 2
23 11 2
26 1 2
1 11 2
32 24 2
21 23 2
37 10 2
10 37 2
23 39 2
1 39 2
19 1 2
1 19 2
23 16 2
16 23 2
23 40 2
40 1 2
43 16 2
45 30 2
30 45 2
1 2 1
2 3 1
3 4 1
6 7 1
6 8 1
7 8 1
5 8 1
4 8 1
7 4 1
4 9 1
9 10 1
11 12 1
12 13 1
13 14 1
14 13 1
13 15 1
15 14 1
14 11 1
10 16 1
16 11 1
11 17 1
17 18 1
18 17 1
17 14 1
11 19 1
19 11 1
11 20 1
20 21 1
1 21 1
10 22 1
22 10 1
10 7 1
1 25 1
25 26 1
1 26 1
11 1 1
10 27 1
27 12 1
12 1 1
7 28 1
28 10 1
10 28 1
28 1 1
1 28 1
28 29 1
21 11 1
1 30 1
30 11 1
24 7 1
1 13 1
10 31 1
31 24 1
11 32 1
32 33 1
33 34 1
34 32 1
24 32 1
24 1 1
10 21 1
23 21 1
24 36 1
36 10 1
23 37 1
37 1 1
23 38 1
38 23 1
39 23 1
19 39 1
39 19 1
7 19 1
1 40 1
40 23 1
19 30 1
30 24 1
24 23 1
23 41 1
41 23 1
7 41 1
41 19 1
19 24 1
24 42 1
42 16 1
16 39 1
39 38 1
38 43 1
16 1 1
1 12 1
12 43 1
16 20 1
20 30 1
30 19 1
19 44 1
44 30 1
10 45 1
45 10 1
10 46 1
46 45 1
45 47 1
47 35 1
11 35 1
11 48 1
48 1 1
1 49 1
49 1 1
1 44 1
44 1 1
10 12 1
12 10 1
1 37 1
