5 14 45
9 5 41
5 9 40
14 5 39
21 14 31
14 21 29
15 47 19
47 15 18
18 5 16
5 18 15
18 23 13
21 18 12
23 18 10
31 9 10
18 21 9
15 21 9
9 31 8
21 15 8
4 5 7
5 4 7
15 18 7
14 18 7
18 14 7
18 15 6
21 58 5
58 21 4
59 47 4
47 59 4
69 5 4
47 5 4
18 43 3
5 21 3
5 69 3
73 5 3
85 5 3
13 5 2
5 13 2
13 14 2
14 15 2
15 19 2
19 20 2
23 5 2
5 12 2
12 5 2
31 21 2
21 5 2
34 5 2
43 18 2
14 54 2
18 19 2
19 14 2
59 15 2
5 19 2
19 5 2
19 54 2
54 5 2
54 73 2
5 47 2
5 85 2
5 99 2
99 5 2
1 2 1
2 3 1
3 4 1
4 6 1
6 7 1
7 8 1
8 9 1
9 7 1
7 4 1
4 8 1
8 10 1
10 8 1
8 5 1
5 11 1
11 12 1
12 13 1
14 13 1
15 16 1
16 17 1
17 18 1
18 16 1
16 15 1
5 15 1
20 21 1
21 19 1
20 18 1
5 22 1
22 5 1
23 24 1
24 18 1
5 23 1
23 25 1
25 26 1
26 5 1
5 27 1
27 5 1
5 28 1
28 29 1
29 5 1
5 30 1
30 5 1
5 31 1
9 32 1
32 31 1
9 21 1
21 31 1
5 33 1
33 5 1
9 34 1
5 35 1
35 34 1
21 36 1
36 21 1
5 37 1
37 38 1
38 39 1
39 40 1
40 9 1
9 18 1
18 41 1
41 18 1
18 42 1
42 16 1
16 18 1
18 44 1
44 18 1
43 15 1
18 45 1
45 46 1
46 15 1
47 21 1
15 48 1
48 21 1
21 49 1
49 15 1
14 50 1
50 21 1
14 51 1
51 21 1
47 52 1
52 47 1
15 14 1
14 9 1
9 53 1
53 5 1
54 14 1
5 55 1
55 5 1
18 56 1
56 18 1
18 57 1
57 21 1
19 18 1
58 9 1
5 59 1
47 60 1
60 61 1
61 59 1
59 62 1
62 59 1
15 63 1
63 9 1
5 64 1
64 65 1
65 66 1
66 47 1
15 67 1
67 5 1
14 68 1
68 5 1
14 3 1
3 14 1
54 69 1
14 19 1
54 19 1
19 69 1
69 70 1
70 54 1
5 3 1
3 5 1
5 71 1
71 5 1
14 72 1
72 5 1
14 73 1
73 19 1
5 74 1
74 5 1
14 75 1
75 14 1
14 76 1
76 73 1
73 3 1
3 73 1
73 54 1
73 14 1
14 77 1
77 73 1
73 78 1
78 73 1
14 79 1
79 19 1
19 23 1
23 21 1
21 73 1
73 80 1
80 23 1
23 78 1
78 81 1
81 76 1
76 82 1
82 83 1
83 73 1
73 21 1
21 84 1
84 5 1
85 73 1
73 86 1
86 21 1
21 86 1
86 23 1
23 87 1
87 47 1
5 86 1
86 47 1
5 88 1
88 29 1
29 89 1
89 90 1
90 76 1
76 15 1
5 91 1
91 5 1
5 76 1
76 18 1
18 85 1
85 18 1
18 54 1
5 92 1
92 93 1
93 5 1
5 29 1
29 94 1
94 85 1
5 95 1
95 73 1
5 96 1
96 5 1
5 73 1
73 13 1
13 85 1
5 97 1
97 18 1
5 98 1
98 5 1
5 100 1
100 5 1
21 8 1
8 101 1
101 31 1
31 102 1
102 103 1
103 104 1
104 31 1
