13 28 9
28 86 8
28 38 7
38 28 6
28 13 6
86 28 6
13 71 5
71 13 5
86 71 4
15 13 3
36 28 3
15 28 3
27 28 2
28 36 2
28 21 2
28 43 2
13 50 2
28 52 2
28 15 2
71 86 2
71 28 2
28 71 2
71 43 2
22 28 2
1 2 1
2 3 1
3 4 1
4 5 1
5 6 1
6 7 1
7 8 1
8 9 1
9 10 1
10 11 1
11 12 1
12 13 1
13 14 1
14 15 1
15 16 1
16 15 1
13 10 1
10 15 1
15 17 1
17 18 1
18 17 1
17 19 1
19 20 1
20 21 1
21 22 1
22 23 1
23 24 1
24 25 1
25 26 1
26 27 1
28 29 1
29 30 1
30 31 1
31 27 1
27 32 1
32 27 1
28 33 1
33 34 1
34 35 1
35 36 1
36 37 1
37 36 1
21 39 1
39 21 1
21 40 1
40 28 1
28 41 1
41 42 1
42 41 1
41 28 1
43 44 1
44 28 1
21 45 1
45 13 1
13 46 1
46 13 1
13 32 1
32 13 1
28 47 1
47 48 1
48 13 1
13 49 1
49 13 1
50 51 1
51 28 1
52 13 1
13 53 1
53 13 1
13 54 1
54 13 1
52 28 1
28 55 1
55 56 1
56 28 1
28 57 1
57 58 1
58 59 1
59 60 1
60 28 1
28 61 1
61 62 1
62 63 1
63 64 1
64 65 1
65 13 1
13 66 1
66 67 1
67 28 1
50 15 1
28 68 1
68 69 1
69 15 1
28 70 1
70 28 1
43 15 1
71 72 1
72 71 1
71 73 1
73 74 1
74 75 1
75 73 1
73 76 1
76 71 1
71 77 1
77 71 1
71 78 1
78 79 1
79 80 1
80 81 1
81 71 1
71 82 1
82 71 1
71 83 1
83 84 1
84 85 1
85 74 1
74 86 1
86 87 1
87 71 1
71 88 1
88 86 1
86 38 1
38 89 1
89 90 1
90 86 1
86 78 1
78 91 1
91 50 1
50 86 1
86 92 1
92 86 1
86 93 1
93 94 1
94 71 1
71 95 1
95 96 1
96 71 1
13 86 1
28 97 1
97 38 1
38 98 1
98 28 1
38 99 1
99 100 1
100 28 1
86 101 1
101 102 1
102 103 1
103 104 1
104 105 1
105 106 1
106 86 1
86 107 1
107 108 1
108 109 1
109 110 1
110 28 1
28 111 1
111 112 1
112 28 1
28 113 1
113 28 1
86 114 1
114 86 1
86 115 1
115 86 1
28 79 1
79 116 1
116 13 1
13 117 1
117 118 1
118 71 1
71 66 1
66 119 1
119 120 1
120 121 1
121 71 1
71 122 1
122 123 1
123 124 1
124 36 1
36 125 1
125 126 1
126 127 1
127 128 1
128 105 1
105 32 1
32 129 1
129 130 1
130 28 1
28 131 1
131 28 1
86 80 1
80 74 1
74 132 1
132 86 1
71 133 1
133 134 1
134 74 1
74 135 1
135 136 1
136 22 1
22 13 1
28 137 1
137 138 1
138 41 1
41 139 1
139 140 1
140 141 1
141 28 1
28 142 1
142 13 1
13 143 1
143 144 1
144 145 1
145 146 1
146 28 1
28 147 1
147 28 1
28 50 1
50 148 1
148 28 1
28 149 1
149 28 1
71 150 1
150 28 1
71 151 1
151 152 1
152 43 1
43 28 1
28 153 1
153 154 1
154 155 1
155 156 1
156 157 1
157 71 1
71 158 1
158 71 1
43 71 1
43 159 1
159 71 1
28 160 1
160 161 1
161 71 1
71 162 1
162 163 1
163 164 1
164 86 1
86 165 1
165 166 1
166 167 1
167 71 1
86 168 1
168 74 1
74 80 1
80 76 1
76 86 1
71 74 1
74 22 1
28 169 1
169 28 1
28 170 1
170 28 1
28 22 1
86 171 1
171 172 1
172 86 1
28 173 1
