13 6 48
8 6 44
6 8 43
6 13 42
6 11 25
11 6 22
6 7 14
7 6 12
2 6 11
27 13 11
6 2 9
10 11 9
7 2 8
13 27 8
2 7 7
11 13 7
11 31 6
6 10 6
2 8 5
11 10 5
13 11 5
6 27 5
32 8 5
8 2 4
12 11 4
24 6 4
31 32 4
8 32 4
32 31 4
31 11 4
7 8 3
11 12 3
13 8 3
6 24 3
10 6 3
1 2 2
2 3 2
18 2 2
6 21 2
21 6 2
11 24 2
27 6 2
30 11 2
8 13 2
31 6 2
6 34 2
11 30 2
6 38 2
38 6 2
3 2 1
2 4 1
4 5 1
5 2 1
8 7 1
2 1 1
2 9 1
9 2 1
3 7 1
8 10 1
10 12 1
12 10 1
11 14 1
14 15 1
15 13 1
13 7 1
7 1 1
1 11 1
11 16 1
16 7 1
11 17 1
17 18 1
18 19 1
19 20 1
20 18 1
2 18 1
6 3 1
3 17 1
17 6 1
6 17 1
17 22 1
22 2 1
6 12 1
7 13 1
6 23 1
23 6 1
8 11 1
11 8 1
24 11 1
11 25 1
25 26 1
26 6 1
6 28 1
28 13 1
8 29 1
29 13 1
13 29 1
29 6 1
8 30 1
32 33 1
33 32 1
6 32 1
8 31 1
34 6 1
6 1 1
1 6 1
6 35 1
35 6 1
30 13 1
31 30 1
30 6 1
34 36 1
36 10 1
10 37 1
37 6 1
6 39 1
39 6 1
13 2 1
2 40 1
