10 6 61
6 10 57
14 6 48
6 14 47
36 35 36
35 36 33
6 19 14
19 6 14
6 44 14
44 6 12
6 39 10
39 6 9
6 21 7
21 6 6
6 48 6
48 6 6
8 6 5
25 6 5
6 25 5
6 9 4
6 11 4
22 6 4
35 6 4
6 36 4
25 14 4
6 8 3
9 6 3
11 6 3
6 18 3
21 22 3
6 23 3
6 26 3
26 6 3
14 25 3
31 6 3
6 38 3
38 6 3
6 12 2
12 6 2
6 13 2
22 21 2
23 6 2
6 28 2
14 10 2
44 45 2
45 6 2
6 46 2
46 6 2
1 2 1
2 3 1
3 4 1
4 5 1
5 6 1
6 7 1
7 6 1
9 8 1
11 8 1
13 6 1
13 14 1
6 15 1
15 10 1
6 16 1
16 17 1
17 16 1
16 14 1
14 16 1
16 6 1
18 16 1
16 18 1
18 14 1
18 6 1
18 10 1
6 20 1
20 19 1
6 22 1
19 21 1
19 22 1
21 19 1
6 24 1
24 25 1
23 14 1
6 27 1
27 6 1
28 6 1
28 29 1
29 30 1
30 29 1
29 31 1
6 32 1
32 6 1
6 3 1
3 6 1
6 33 1
33 31 1
6 34 1
34 31 1
6 35 1
36 37 1
37 36 1
36 6 1
39 10 1
10 14 1
14 22 1
6 40 1
40 6 1
14 41 1
41 42 1
42 6 1
6 43 1
43 6 1
6 47 1
47 6 1
