9 10 60
10 9 56
10 111 38
111 10 37
85 9 11
129 10 10
17 10 9
9 85 9
10 129 8
10 78 7
78 10 7
10 17 6
70 10 6
10 70 6
89 9 6
9 90 6
159 9 6
9 89 5
90 9 5
10 154 5
9 159 5
39 10 4
10 159 4
10 16 3
10 32 3
32 10 3
10 39 3
10 48 3
48 10 3
53 10 3
66 10 3
10 67 3
76 10 3
9 88 3
88 9 3
9 17 3
154 10 3
158 10 3
16 17 2
34 17 2
10 38 2
38 10 2
16 10 2
10 47 2
47 10 2
10 53 2
10 56 2
56 10 2
10 66 2
10 72 2
10 82 2
82 10 2
91 9 2
90 89 2
10 96 2
113 10 2
10 115 2
115 10 2
10 130 2
130 10 2
10 134 2
135 10 2
85 138 2
138 85 2
67 10 2
111 9 2
9 111 2
9 152 2
155 10 2
10 158 2
9 161 2
161 9 2
165 9 2
10 166 2
159 10 2
10 165 2
1 2 1
2 3 1
3 2 1
2 4 1
4 5 1
5 3 1
3 5 1
5 6 1
6 7 1
7 8 1
8 9 1
10 11 1
11 9 1
10 12 1
12 9 1
9 13 1
13 14 1
14 15 1
15 10 1
10 18 1
18 19 1
19 10 1
10 20 1
20 10 1
10 21 1
21 22 1
22 21 1
21 23 1
23 24 1
24 25 1
25 26 1
26 27 1
27 10 1
10 28 1
28 17 1
10 29 1
29 30 1
30 31 1
31 10 1
10 33 1
33 34 1
17 34 1
34 35 1
35 34 1
17 36 1
36 37 1
37 10 1
10 34 1
34 39 1
17 16 1
10 40 1
40 10 1
10 41 1
41 10 1
10 42 1
42 43 1
43 10 1
10 44 1
44 10 1
10 45 1
45 10 1
10 46 1
46 10 1
10 49 1
49 50 1
50 10 1
10 50 1
50 51 1
51 52 1
52 10 1
10 52 1
52 53 1
10 54 1
54 10 1
10 55 1
55 10 1
56 57 1
57 56 1
10 58 1
58 59 1
59 60 1
60 61 1
61 62 1
62 10 1
10 63 1
63 64 1
64 65 1
65 10 1
67 66 1
10 68 1
68 10 1
10 69 1
69 70 1
70 71 1
71 10 1
72 73 1
73 10 1
72 10 1
10 74 1
74 10 1
10 75 1
75 76 1
10 77 1
77 76 1
10 76 1
10 79 1
79 80 1
80 81 1
81 80 1
80 10 1
9 83 1
83 84 1
84 9 1
85 86 1
86 87 1
87 9 1
9 91 1
9 92 1
92 46 1
46 91 1
9 93 1
93 94 1
94 10 1
10 85 1
9 95 1
95 9 1
96 10 1
96 97 1
97 10 1
9 98 1
98 10 1
10 99 1
99 10 1
9 100 1
100 101 1
101 10 1
10 100 1
100 9 1
9 102 1
102 85 1
10 103 1
103 10 1
10 25 1
25 10 1
10 104 1
104 89 1
9 105 1
105 9 1
17 9 1
17 106 1
106 9 1
17 107 1
107 9 1
9 78 1
78 108 1
108 10 1
10 109 1
109 10 1
10 110 1
110 10 1
10 112 1
112 113 1
10 113 1
10 114 1
114 10 1
10 116 1
116 10 1
10 117 1
117 118 1
118 119 1
119 111 1
10 120 1
120 10 1
10 121 1
121 10 1
10 122 1
122 10 1
10 123 1
123 115 1
115 124 1
124 111 1
111 125 1
125 10 1
9 126 1
126 127 1
127 9 1
111 128 1
128 10 1
10 83 1
83 9 1
9 129 1
10 131 1
131 9 1
10 132 1
132 129 1
129 133 1
133 10 1
134 129 1
10 24 1
24 135 1
10 135 1
10 136 1
136 10 1
10 137 1
137 85 1
9 139 1
139 138 1
138 9 1
9 138 1
138 10 1
10 140 1
140 10 1
9 141 1
141 10 1
10 142 1
142 24 1
24 9 1
10 143 1
143 10 1
111 144 1
144 10 1
10 145 1
145 9 1
89 142 1
142 10 1
10 146 1
146 10 1
10 147 1
147 148 1
148 10 1
10 149 1
149 10 1
10 150 1
150 10 1
10 151 1
151 9 1
152 9 1
152 153 1
153 10 1
154 155 1
10 156 1
156 10 1
154 157 1
157 154 1
154 158 1
10 90 1
159 85 1
85 159 1
89 160 1
160 9 1
9 162 1
162 10 1
9 163 1
163 155 1
10 164 1
164 9 1
9 165 1
9 94 1
94 17 1
134 9 1
166 10 1
10 167 1
167 9 1
10 168 1
168 9 1
159 169 1
169 170 1
170 10 1
10 171 1
171 10 1
9 172 1
172 10 1
10 173 1
173 10 1
165 10 1
166 9 1
9 174 1
174 9 1
9 175 1
175 10 1
