14 4 28
4 14 28
39 4 23
4 39 23
4 5 17
5 4 17
26 30 14
30 26 14
33 4 13
14 52 13
4 33 12
52 14 12
26 67 12
67 26 12
4 27 11
4 52 11
26 14 9
14 26 9
15 26 9
26 15 9
52 4 9
29 4 9
17 14 8
27 4 8
31 4 8
4 29 8
4 31 7
15 4 6
14 17 6
6 4 5
4 26 5
47 29 5
29 47 5
4 6 4
4 17 4
4 15 4
31 14 4
26 4 4
17 53 4
56 59 4
11 12 3
12 11 3
17 4 3
14 15 3
29 32 3
30 29 3
29 30 3
14 31 3
44 4 3
45 26 3
39 31 3
19 29 3
53 17 3
29 59 3
15 16 2
16 14 2
15 17 2
4 21 2
4 19 2
24 4 2
25 26 2
27 16 2
16 4 2
28 4 2
26 29 2
29 26 2
26 31 2
32 29 2
37 30 2
30 37 2
38 29 2
37 26 2
42 14 2
4 44 2
26 45 2
27 39 2
31 39 2
52 27 2
27 52 2
29 19 2
54 19 2
19 55 2
4 56 2
59 29 2
59 64 2
59 56 2
65 4 2
4 65 2
1 2 1
2 3 1
3 4 1
4 7 1
7 4 1
4 8 1
8 4 1
4 9 1
9 4 1
4 10 1
10 4 1
4 11 1
12 13 1
13 12 1
11 13 1
13 11 1
11 14 1
14 13 1
13 15 1
16 15 1
15 14 1
14 18 1
18 4 1
14 19 1
19 15 1
17 20 1
20 21 1
21 14 1
4 22 1
22 23 1
23 4 1
21 15 1
19 4 1
14 24 1
4 24 1
4 25 1
26 25 1
4 16 1
14 16 1
16 27 1
27 28 1
4 28 1
31 29 1
32 4 1
27 33 1
4 34 1
34 4 1
33 35 1
35 36 1
36 37 1
37 38 1
29 38 1
29 39 1
39 37 1
26 37 1
29 40 1
40 29 1
30 41 1
41 30 1
26 42 1
14 42 1
14 43 1
43 44 1
33 45 1
26 39 1
39 27 1
31 27 1
39 33 1
31 46 1
46 4 1
4 45 1
45 17 1
15 31 1
4 47 1
47 48 1
48 49 1
49 50 1
50 51 1
51 49 1
49 31 1
52 33 1
29 20 1
20 29 1
29 17 1
53 54 1
55 19 1
19 54 1
55 53 1
53 4 1
4 12 1
12 45 1
45 4 1
56 57 1
57 56 1
56 19 1
19 56 1
56 52 1
52 58 1
58 29 1
59 14 1
52 55 1
55 60 1
60 55 1
55 61 1
61 55 1
55 62 1
62 61 1
61 15 1
17 15 1
15 55 1
55 63 1
63 4 1
64 56 1
64 59 1
59 55 1
55 4 1
52 65 1
65 29 1
4 66 1
66 29 1
29 6 1
21 4 1
67 5 1
5 68 1
68 69 1
69 68 1
68 5 1
5 69 1
69 67 1
