8 13 41
18 8 40
13 8 38
8 18 38
8 17 23
17 8 22
15 8 16
8 15 15
8 7 10
7 8 9
17 18 9
18 19 6
18 17 6
28 8 5
14 8 4
19 8 4
8 20 4
8 28 4
13 14 3
8 14 3
8 19 3
19 15 3
15 20 3
20 8 3
18 15 3
15 18 3
19 18 3
8 29 3
29 8 3
32 21 3
14 13 2
20 18 2
19 17 2
8 26 2
21 32 2
21 8 2
8 21 2
15 13 2
1 2 1
2 3 1
3 4 1
4 5 1
5 6 1
6 7 1
7 9 1
9 8 1
7 10 1
10 11 1
11 12 1
12 8 1
13 15 1
15 16 1
16 17 1
20 15 1
17 19 1
20 21 1
21 17 1
17 15 1
8 22 1
22 23 1
23 8 1
8 24 1
24 8 1
20 19 1
18 20 1
8 25 1
25 26 1
26 8 1
26 27 1
27 8 1
26 28 1
18 21 1
21 30 1
30 31 1
31 18 1
15 19 1
17 32 1
21 13 1
13 33 1
33 15 1
13 34 1
34 15 1
8 35 1
35 8 1
8 36 1
36 24 1
24 17 1
13 18 1
13 37 1
