2 15 40
15 2 39
12 15 39
15 12 35
1 2 28
2 1 27
1 12 23
15 1 23
1 15 20
12 1 19
9 1 18
1 9 17
3 4 10
4 3 9
7 1 9
30 1 8
63 12 8
65 63 8
1 30 7
12 63 7
63 65 7
1 7 6
15 49 6
49 15 6
6 1 6
1 6 6
9 15 4
19 9 4
15 28 4
28 15 4
40 15 4
9 12 3
12 9 3
1 13 3
15 9 3
2 9 3
9 19 3
15 40 3
9 38 3
38 9 3
13 9 2
18 1 2
9 21 2
24 1 2
32 30 2
1 38 2
1 47 2
9 2 2
15 60 2
60 12 2
67 1 2
1 3 1
4 1 1
1 5 1
5 1 1
1 4 1
4 6 1
6 7 1
1 8 1
8 7 1
2 7 1
9 10 1
10 9 1
9 11 1
11 9 1
1 14 1
14 9 1
1 16 1
16 1 1
13 2 1
9 13 1
9 17 1
17 18 1
9 20 1
20 9 1
21 9 1
1 22 1
22 1 1
2 23 1
23 24 1
24 9 1
13 24 1
1 24 1
12 25 1
25 1 1
21 1 1
15 26 1
26 27 1
27 1 1
1 29 1
29 15 1
1 31 1
31 1 1
1 32 1
30 31 1
31 32 1
1 18 1
1 17 1
17 15 1
15 33 1
33 15 1
15 34 1
34 35 1
35 15 1
2 36 1
36 37 1
37 1 1
38 1 1
38 2 1
1 39 1
39 1 1
1 40 1
15 41 1
41 15 1
12 42 1
42 15 1
15 43 1
43 44 1
44 15 1
15 45 1
45 2 1
1 19 1
19 1 1
1 46 1
46 1 1
47 15 1
15 48 1
48 15 1
15 21 1
21 15 1
15 50 1
50 15 1
15 51 1
51 52 1
52 15 1
15 18 1
18 2 1
2 51 1
51 2 1
15 53 1
53 54 1
54 15 1
2 55 1
55 2 1
15 56 1
56 1 1
1 57 1
57 19 1
9 58 1
58 15 1
15 59 1
59 15 1
2 61 1
61 1 1
47 62 1
62 63 1
63 64 1
64 63 1
63 2 1
2 63 1
63 18 1
18 63 1
12 65 1
63 45 1
45 1 1
15 66 1
66 6 1
6 67 1
1 67 1
15 68 1
68 2 1
15 69 1
69 15 1
