2 11 185
11 2 182
1 2 98
2 1 93
2 8 32
8 2 31
46 2 25
2 46 23
1 8 22
8 1 21
11 1 18
1 11 17
3 4 10
6 1 10
4 3 9
19 1 9
48 46 8
1 6 7
1 19 7
5 1 7
11 31 6
46 48 6
1 5 6
8 11 5
24 11 5
31 11 5
37 11 5
11 8 4
11 18 4
18 11 4
2 19 4
24 2 4
2 24 4
11 24 4
11 37 4
40 38 3
8 22 3
22 8 3
2 48 3
1 49 3
4 1 2
1 4 2
5 2 2
2 5 2
7 6 2
2 6 2
14 1 2
19 20 2
20 19 2
19 2 2
29 2 2
1 30 2
11 38 2
38 37 2
11 43 2
49 1 2
1 3 1
4 5 1
5 6 1
6 7 1
1 7 1
6 2 1
8 9 1
9 8 1
1 10 1
10 11 1
1 12 1
12 1 1
2 13 1
13 11 1
2 14 1
14 8 1
8 14 1
1 14 1
8 15 1
15 1 1
11 16 1
16 17 1
17 1 1
20 1 1
1 20 1
2 21 1
21 2 1
2 22 1
22 1 1
1 22 1
22 2 1
2 23 1
23 1 1
1 24 1
11 25 1
25 26 1
26 11 1
11 27 1
27 28 1
28 2 1
11 29 1
30 2 1
31 32 1
32 11 1
11 33 1
33 34 1
34 11 1
2 33 1
33 2 1
11 35 1
35 28 1
28 11 1
2 36 1
36 1 1
1 37 1
37 39 1
39 40 1
40 11 1
11 39 1
39 11 1
38 40 1
11 40 1
38 11 1
37 40 1
38 2 1
2 41 1
41 1 1
1 42 1
42 2 1
43 11 1
43 2 1
2 44 1
44 1 1
30 45 1
45 46 1
2 47 1
47 2 1
48 2 1
46 29 1
11 5 1
49 50 1
50 11 1
11 51 1
51 2 1
