7 6 13
6 7 10
4 39 9
39 4 9
28 29 7
29 28 7
35 7 7
31 35 7
6 23 5
27 26 5
30 7 5
7 30 5
35 31 5
9 7 4
18 10 4
30 31 4
31 30 4
26 27 4
23 6 4
7 35 4
7 9 3
7 10 3
10 7 3
6 9 3
11 12 3
16 17 3
10 18 3
20 19 3
19 20 3
26 16 3
7 31 3
35 30 3
30 37 3
30 35 3
8 7 2
12 11 2
12 13 2
14 15 2
17 16 2
17 18 2
9 6 2
24 17 2
20 25 2
16 26 2
37 30 2
37 31 2
31 37 2
38 30 2
1 2 1
2 3 1
3 4 1
4 5 1
5 6 1
6 8 1
7 8 1
7 2 1
2 11 1
13 12 1
13 14 1
14 11 1
11 14 1
15 14 1
15 16 1
18 19 1
19 18 1
10 20 1
20 21 1
21 20 1
20 22 1
22 9 1
23 7 1
6 24 1
17 24 1
18 20 1
25 26 1
16 27 1
26 7 1
7 19 1
19 7 1
9 19 1
19 9 1
6 28 1
28 30 1
30 32 1
32 26 1
26 20 1
20 23 1
23 20 1
25 6 1
23 9 1
9 23 1
6 33 1
33 6 1
6 34 1
34 35 1
35 34 1
34 36 1
36 35 1
37 7 1
7 38 1
30 38 1
31 6 1
9 4 1
