13 6 48
8 6 44
6 8 43
6 13 42
6 11 24
11 6 22
6 7 14
7 6 12
2 6 11
26 13 11
6 2 9
10 11 9
7 2 8
13 26 8
2 7 7
11 13 7
13 11 6
11 29 6
6 10 6
2 8 5
11 10 5
6 26 5
8 2 4
12 11 4
23 6 4
29 30 4
30 8 4
8 30 4
30 29 4
29 11 4
7 8 3
11 12 3
13 8 3
6 23 3
10 6 3
1 2 2
2 3 2
18 2 2
6 21 2
21 6 2
8 11 2
11 23 2
26 6 2
29 6 2
6 32 2
11 34 2
6 36 2
36 6 2
3 2 1
2 4 1
4 5 1
5 2 1
8 7 1
2 1 1
2 9 1
9 2 1
3 7 1
8 10 1
10 12 1
12 10 1
11 14 1
14 15 1
15 13 1
13 7 1
7 1 1
1 11 1
11 16 1
16 7 1
11 17 1
17 18 1
18 19 1
19 20 1
20 18 1
2 18 1
6 3 1
3 17 1
17 6 1
6 17 1
17 2 1
6 12 1
7 13 1
6 22 1
22 6 1
11 8 1
23 11 1
11 24 1
24 25 1
25 6 1
6 27 1
27 13 1
8 28 1
28 13 1
13 28 1
28 6 1
30 31 1
31 30 1
30 13 1
6 30 1
8 29 1
32 6 1
6 1 1
1 6 1
6 33 1
33 6 1
34 11 1
34 13 1
29 34 1
34 6 1
10 13 1
32 35 1
35 10 1
6 37 1
37 6 1
8 13 1
13 2 1
2 38 1
