2 3 22
3 2 22
14 3 14
3 14 13
7 8 12
8 7 11
10 7 10
17 3 10
3 17 9
13 2 7
18 17 7
17 18 7
7 10 7
14 24 7
2 13 6
3 28 6
28 3 6
24 14 5
17 5 4
8 14 4
14 8 4
6 7 3
5 17 3
5 2 2
7 6 2
2 5 2
12 7 2
3 13 2
13 3 2
2 22 2
22 17 2
17 21 2
21 17 2
7 14 2
14 26 2
2 28 2
28 2 2
1 2 1
2 4 1
4 5 1
3 6 1
8 9 1
9 10 1
10 11 1
11 3 1
5 3 1
3 12 1
7 12 1
7 13 1
2 14 1
3 15 1
15 16 1
16 15 1
15 17 1
17 15 1
15 18 1
17 19 1
19 17 1
18 15 1
15 7 1
7 20 1
20 14 1
14 20 1
20 21 1
21 22 1
22 2 1
2 17 1
17 23 1
23 17 1
5 14 1
24 10 1
8 10 1
7 2 1
17 14 1
24 8 1
14 25 1
25 14 1
14 10 1
26 14 1
26 2 1
2 27 1
27 2 1
3 29 1
29 2 1
2 26 1
26 3 1
3 7 1
