14 12 30
12 14 27
4 5 12
5 4 11
12 13 10
13 12 9
13 14 7
16 4 7
28 4 7
4 16 6
4 28 6
17 19 5
26 20 5
6 4 4
14 13 4
19 17 4
23 12 4
4 12 4
4 6 3
7 8 3
8 7 3
11 12 3
12 11 3
21 22 3
22 21 3
22 14 3
21 14 3
14 23 3
27 26 3
20 26 3
31 4 3
12 4 3
17 18 2
20 14 2
12 21 2
14 22 2
14 21 2
12 23 2
12 27 2
4 31 2
13 4 2
4 13 2
12 33 2
1 2 1
2 3 1
3 4 1
5 6 1
4 7 1
7 9 1
9 7 1
7 10 1
10 11 1
11 13 1
14 15 1
15 4 1
4 15 1
15 16 1
4 17 1
18 17 1
18 8 1
8 17 1
19 20 1
12 20 1
21 12 1
23 24 1
24 23 1
23 22 1
12 25 1
25 26 1
20 12 1
26 12 1
20 27 1
26 27 1
27 14 1
14 28 1
4 14 1
14 29 1
29 30 1
30 31 1
23 4 1
4 23 1
12 32 1
32 13 1
33 12 1
33 14 1
14 34 1
34 35 1
35 36 1
36 37 1
