3 18 39
3 19 38
18 3 36
19 3 32
3 6 31
6 3 30
3 10 24
11 3 23
10 3 21
19 18 18
3 11 16
18 19 16
13 3 14
3 13 14
3 48 13
19 11 12
48 3 12
11 19 8
25 3 8
3 25 6
19 48 6
18 11 5
3 47 5
47 3 5
11 18 4
30 11 4
48 19 4
48 49 4
2 3 3
10 11 3
4 6 3
20 21 3
24 11 3
11 27 3
11 30 3
3 29 3
38 3 3
6 19 3
3 54 3
71 72 3
78 79 3
3 2 2
3 7 2
7 3 2
6 4 2
21 11 2
3 8 2
11 24 2
24 25 2
25 11 2
11 25 2
26 3 2
25 29 2
29 25 2
25 24 2
29 3 2
35 29 2
36 38 2
38 35 2
35 38 2
29 38 2
51 3 2
3 51 2
18 54 2
49 3 2
58 54 2
62 18 2
18 62 2
54 62 2
54 3 2
68 69 2
75 3 2
79 83 2
85 79 2
1 2 1
2 4 1
4 5 1
5 6 1
6 2 1
7 8 1
8 9 1
9 7 1
11 12 1
12 13 1
13 4 1
4 11 1
3 5 1
5 14 1
14 4 1
6 15 1
15 16 1
16 17 1
17 3 1
10 18 1
19 10 1
11 10 1
10 19 1
11 20 1
11 22 1
22 21 1
21 10 1
10 20 1
21 3 1
8 11 1
19 21 1
21 20 1
19 20 1
20 5 1
5 23 1
23 5 1
5 20 1
20 11 1
11 5 1
5 18 1
18 24 1
19 25 1
3 26 1
26 19 1
11 26 1
27 19 1
19 24 1
27 28 1
28 11 1
27 25 1
24 29 1
29 24 1
30 24 1
24 30 1
3 31 1
31 32 1
32 33 1
33 29 1
3 34 1
34 3 1
29 35 1
29 36 1
36 37 1
37 11 1
11 36 1
36 11 1
24 36 1
18 35 1
38 36 1
38 39 1
39 38 1
18 40 1
40 39 1
39 3 1
3 40 1
40 8 1
8 39 1
39 41 1
41 3 1
3 42 1
42 6 1
6 18 1
18 6 1
19 43 1
43 6 1
6 44 1
44 3 1
6 43 1
43 45 1
45 6 1
19 6 1
19 45 1
45 46 1
46 6 1
6 45 1
45 19 1
49 19 1
49 48 1
48 50 1
50 19 1
18 26 1
19 51 1
51 52 1
52 51 1
51 53 1
53 19 1
54 19 1
19 55 1
55 19 1
19 56 1
56 19 1
18 4 1
4 3 1
54 48 1
48 18 1
18 48 1
18 57 1
57 58 1
54 59 1
59 58 1
54 60 1
60 3 1
8 61 1
61 62 1
62 54 1
62 4 1
4 63 1
63 18 1
62 64 1
64 54 1
3 65 1
65 66 1
66 67 1
67 68 1
69 68 1
69 67 1
67 70 1
70 69 1
69 3 1
3 68 1
68 4 1
4 18 1
11 54 1
54 71 1
72 11 1
11 71 1
72 73 1
73 46 1
46 71 1
72 74 1
74 75 1
54 76 1
76 24 1
24 75 1
75 71 1
71 75 1
3 77 1
77 3 1
3 71 1
71 77 1
77 78 1
79 78 1
79 80 1
80 78 1
78 81 1
81 80 1
80 82 1
82 78 1
83 79 1
79 3 1
3 79 1
79 84 1
84 85 1
85 86 1
86 85 1
79 85 1
83 87 1
87 30 1
3 88 1
88 18 1
