2 26 149
26 2 145
56 2 54
2 56 54
2 39 52
39 2 48
3 2 22
2 3 21
31 2 18
2 31 16
2 29 13
5 2 12
29 2 12
2 5 11
42 2 10
54 2 10
2 54 10
70 2 10
2 42 9
2 70 9
39 26 8
26 39 8
2 71 8
71 2 8
2 57 7
2 7 6
23 2 6
2 23 6
57 2 6
2 6 5
7 2 5
24 2 5
2 25 5
25 2 5
32 2 5
6 2 4
2 24 4
2 32 4
2 44 4
2 61 4
61 2 4
64 2 4
2 75 4
13 2 3
35 2 3
38 2 3
44 2 3
2 64 3
75 2 3
39 77 3
28 2 2
65 64 2
2 65 2
2 69 2
69 2 2
74 2 2
2 79 2
2 35 2
1 2 1
3 4 1
4 5 1
5 3 1
6 5 1
2 8 1
8 9 1
9 8 1
8 10 1
10 11 1
11 12 1
12 13 1
13 14 1
14 15 1
15 16 1
16 2 1
2 17 1
17 13 1
2 13 1
2 18 1
18 19 1
19 2 1
2 9 1
9 13 1
2 20 1
20 2 1
7 21 1
21 22 1
22 23 1
23 24 1
26 27 1
27 2 1
2 28 1
2 30 1
30 31 1
2 33 1
33 34 1
34 35 1
26 36 1
36 37 1
37 2 1
2 37 1
37 38 1
2 38 1
39 40 1
40 39 1
39 38 1
39 41 1
41 42 1
2 43 1
43 2 1
44 45 1
45 46 1
46 47 1
47 48 1
48 2 1
2 49 1
49 9 1
9 50 1
50 49 1
49 50 1
50 32 1
2 51 1
51 2 1
26 28 1
29 31 1
2 52 1
52 26 1
2 53 1
53 54 1
54 55 1
55 56 1
57 58 1
58 59 1
59 2 1
2 60 1
60 2 1
2 62 1
62 2 1
2 63 1
63 64 1
64 65 1
2 66 1
66 2 1
65 2 1
64 67 1
67 68 1
68 2 1
26 70 1
2 72 1
72 26 1
26 73 1
73 74 1
2 74 1
2 76 1
76 2 1
75 39 1
77 39 1
77 2 1
77 78 1
78 2 1
79 2 1
79 35 1
35 80 1
80 2 1
2 81 1
81 2 1
26 82 1
82 2 1
2 83 1
83 2 1
2 4 1
4 3 1
3 84 1
84 2 1
56 3 1
26 56 1
56 26 1
