2 32 8
49 2 8
2 16 7
16 2 7
32 2 7
2 49 7
3 2 6
2 7 6
15 2 6
2 35 6
2 6 5
7 2 5
2 9 5
2 15 5
35 2 5
39 2 5
2 3 4
2 13 4
9 2 4
18 2 4
8 32 4
32 8 4
2 39 4
2 40 4
4 3 3
7 3 3
2 12 3
13 2 3
2 8 3
8 2 3
6 2 3
2 37 3
37 2 3
3 4 2
2 4 2
3 7 2
2 14 2
14 2 2
17 2 2
2 18 2
19 2 2
21 2 2
2 19 2
2 23 2
23 2 2
27 2 2
2 38 2
38 2 2
2 48 2
2 17 2
1 2 1
3 5 1
5 2 1
4 2 1
6 3 1
7 8 1
8 9 1
9 10 1
10 7 1
2 11 1
11 2 1
12 2 1
16 3 1
12 16 1
12 17 1
8 19 1
3 18 1
2 20 1
20 21 1
2 21 1
19 21 1
21 19 1
2 22 1
22 2 1
2 24 1
24 2 1
2 25 1
25 2 1
2 26 1
26 2 1
2 27 1
2 28 1
28 2 1
2 29 1
29 30 1
30 31 1
31 2 1
2 33 1
33 34 1
34 33 1
33 2 1
19 18 1
35 36 1
36 35 1
35 37 1
37 3 1
3 36 1
36 2 1
40 41 1
41 2 1
9 42 1
42 2 1
40 2 1
40 39 1
40 43 1
43 2 1
32 17 1
13 44 1
44 2 1
32 45 1
45 27 1
2 46 1
46 47 1
47 2 1
6 8 1
48 2 1
48 17 1
17 32 1
17 3 1
3 49 1
2 50 1
50 2 1
17 15 1
