4 2 88
2 4 77
2 13 70
13 2 59
13 4 44
4 13 30
11 4 29
4 11 28
2 3 6
3 2 6
2 8 5
2 22 5
8 2 4
2 11 4
18 2 4
2 18 4
22 2 4
2 23 4
7 2 3
9 10 3
10 9 3
11 2 3
12 2 3
2 12 3
4 17 3
23 2 3
2 5 2
6 7 2
9 2 2
4 20 2
20 4 2
28 4 2
29 2 2
2 29 2
1 2 1
3 4 1
5 2 1
5 6 1
2 6 1
8 4 1
4 9 1
11 12 1
12 13 1
13 14 1
14 13 1
4 15 1
15 2 1
4 16 1
16 2 1
17 4 1
17 13 1
4 14 1
14 18 1
18 19 1
19 13 1
2 21 1
21 2 1
2 7 1
22 3 1
23 9 1
2 10 1
10 24 1
24 25 1
25 11 1
4 26 1
26 11 1
11 26 1
26 27 1
27 28 1
17 11 1
11 29 1
29 30 1
30 29 1
29 31 1
31 32 1
32 31 1
31 33 1
33 28 1
4 34 1
34 4 1
4 35 1
