4 2 88
2 4 76
2 14 68
14 2 58
14 4 44
4 12 29
4 14 29
12 4 28
2 3 6
3 2 6
2 25 5
2 12 4
21 2 4
2 21 4
25 2 4
2 27 4
7 2 3
2 8 3
8 2 3
10 11 3
11 10 3
12 2 3
13 2 3
2 13 3
4 20 3
27 2 3
2 5 2
6 7 2
10 2 2
4 23 2
23 4 2
31 4 2
32 2 2
2 32 2
1 2 1
3 4 1
5 2 1
5 6 1
2 6 1
2 9 1
9 8 1
8 4 1
4 10 1
12 13 1
13 14 1
2 15 1
15 14 1
2 16 1
16 14 1
14 17 1
17 14 1
4 18 1
18 2 1
4 19 1
19 2 1
20 4 1
20 14 1
4 17 1
17 21 1
21 22 1
22 14 1
2 24 1
24 2 1
2 7 1
25 3 1
12 26 1
26 4 1
27 10 1
2 11 1
11 28 1
28 29 1
29 12 1
12 30 1
30 31 1
20 12 1
12 32 1
32 33 1
33 34 1
34 33 1
33 35 1
35 31 1
4 36 1
36 4 1
4 37 1
