9 29 40
29 9 39
9 10 23
10 9 19
9 21 14
9 38 13
21 29 13
38 9 12
11 9 11
9 11 11
21 9 11
29 21 11
26 21 6
9 33 6
29 10 5
29 20 5
21 26 5
10 11 4
20 21 4
33 9 4
20 29 4
11 10 3
21 20 3
9 31 3
31 9 3
38 29 3
15 9 2
16 9 2
9 17 2
9 24 2
24 9 2
28 9 2
10 29 2
10 25 2
25 9 2
9 32 2
32 9 2
9 40 2
29 38 2
55 9 2
9 55 2
1 2 1
2 3 1
3 4 1
4 5 1
5 6 1
6 7 1
7 5 1
5 8 1
8 9 1
11 12 1
12 13 1
13 9 1
9 14 1
14 15 1
9 15 1
11 16 1
17 9 1
10 18 1
18 10 1
10 19 1
19 9 1
10 20 1
9 22 1
22 9 1
9 23 1
23 9 1
9 25 1
25 26 1
21 10 1
10 27 1
27 28 1
10 30 1
30 25 1
25 10 1
33 10 1
10 34 1
34 16 1
9 35 1
35 36 1
36 9 1
9 37 1
37 9 1
9 39 1
39 9 1
40 9 1
40 41 1
41 9 1
9 42 1
42 29 1
10 43 1
43 9 1
10 26 1
21 11 1
11 44 1
44 11 1
10 17 1
17 10 1
17 21 1
20 45 1
45 20 1
20 9 1
9 46 1
46 9 1
29 47 1
47 29 1
38 48 1
48 38 1
38 28 1
28 38 1
29 49 1
49 29 1
29 50 1
50 9 1
9 51 1
51 52 1
52 9 1
9 53 1
53 9 1
29 54 1
54 9 1
21 55 1
21 48 1
48 21 1
9 56 1
56 9 1
9 57 1
57 21 1
26 9 1
55 21 1
21 28 1
21 8 1
8 29 1
21 58 1
58 29 1
29 59 1
59 60 1
60 61 1
61 9 1
33 62 1
62 9 1
9 63 1
