35 30 55
30 35 54
35 44 47
44 35 45
35 37 32
37 35 29
64 35 18
37 44 17
35 64 17
26 37 16
37 26 16
44 37 16
18 35 15
43 35 15
35 43 13
26 30 11
30 26 11
35 18 11
26 44 11
35 74 11
44 26 10
74 35 10
64 44 9
44 64 9
37 40 8
61 35 8
40 35 7
40 37 6
35 40 6
70 64 6
64 70 6
35 70 6
74 26 6
26 74 6
25 26 5
26 25 5
35 13 5
50 13 5
59 35 5
35 61 5
70 35 5
13 14 4
14 13 4
29 26 4
26 29 4
35 53 4
35 59 4
70 30 4
30 64 4
80 47 4
19 18 3
24 25 3
25 22 3
37 18 3
37 43 3
13 37 3
13 35 3
52 37 3
44 61 3
67 35 3
30 70 3
73 35 3
47 80 3
18 19 2
22 25 2
32 26 2
26 32 2
35 38 2
39 26 2
42 37 2
46 35 2
13 50 2
51 35 2
44 50 2
37 52 2
53 35 2
64 30 2
44 72 2
72 44 2
35 73 2
13 30 2
30 74 2
79 80 2
47 79 2
81 80 2
80 74 2
26 83 2
83 26 2
82 26 2
1 2 1
2 3 1
3 4 1
4 5 1
5 6 1
6 7 1
7 8 1
8 9 1
9 10 1
10 11 1
11 12 1
12 13 1
14 15 1
15 16 1
16 17 1
17 14 1
14 18 1
18 14 1
14 19 1
18 20 1
20 14 1
13 21 1
21 22 1
22 21 1
21 23 1
23 24 1
22 24 1
25 24 1
25 27 1
27 28 1
28 29 1
29 30 1
30 29 1
29 31 1
31 29 1
29 32 1
32 33 1
33 32 1
32 34 1
34 18 1
35 36 1
36 18 1
18 37 1
38 35 1
38 37 1
35 39 1
26 39 1
40 41 1
41 37 1
37 42 1
35 42 1
35 45 1
45 46 1
43 37 1
35 46 1
35 47 1
47 35 1
35 48 1
48 13 1
13 49 1
49 13 1
13 51 1
35 51 1
35 52 1
37 13 1
53 44 1
53 54 1
54 55 1
55 56 1
56 35 1
44 13 1
13 44 1
13 57 1
57 58 1
58 59 1
35 60 1
60 35 1
13 61 1
35 62 1
62 35 1
37 63 1
63 44 1
61 44 1
35 65 1
65 66 1
66 35 1
37 67 1
35 67 1
64 67 1
64 68 1
68 64 1
35 69 1
69 30 1
13 64 1
64 13 1
44 71 1
71 35 1
44 28 1
28 30 1
30 45 1
45 35 1
30 73 1
35 23 1
23 30 1
35 50 1
50 35 1
74 13 1
30 50 1
74 30 1
30 75 1
75 35 1
74 76 1
76 77 1
77 74 1
74 77 1
77 35 1
35 78 1
78 74 1
74 79 1
79 74 1
26 79 1
80 79 1
79 81 1
80 81 1
74 80 1
79 47 1
47 82 1
82 83 1
83 80 1
74 47 1
80 26 1
26 47 1
47 26 1
26 82 1
26 80 1
80 82 1
74 84 1
