32 27 56
27 32 55
32 41 47
41 32 46
32 34 32
34 32 29
62 32 18
34 41 17
32 62 17
23 34 16
34 23 16
41 34 16
15 32 15
40 32 15
32 40 13
23 27 11
27 23 11
32 15 11
23 41 11
32 71 11
71 32 11
41 23 10
62 41 9
41 62 9
34 37 8
58 32 8
37 32 7
37 34 6
32 37 6
68 62 6
62 68 6
32 68 6
71 23 6
23 71 6
14 12 5
12 14 5
22 23 5
23 22 5
56 32 5
32 58 5
68 32 5
26 23 4
23 26 4
32 14 4
45 14 4
32 51 4
32 56 4
68 27 4
27 62 4
78 44 4
16 15 3
21 22 3
22 19 3
34 15 3
34 40 3
50 34 3
41 58 3
65 32 3
27 68 3
70 32 3
44 78 3
15 16 2
19 22 2
29 23 2
23 29 2
32 35 2
36 23 2
39 34 2
32 42 2
42 32 2
32 45 2
14 45 2
49 32 2
41 45 2
14 32 2
34 50 2
14 34 2
51 32 2
62 27 2
41 69 2
69 41 2
32 70 2
27 71 2
77 78 2
44 77 2
79 78 2
78 71 2
23 81 2
81 23 2
80 23 2
1 2 1
2 3 1
3 4 1
4 5 1
5 6 1
6 7 1
7 8 1
8 9 1
9 10 1
10 11 1
11 12 1
12 13 1
13 14 1
12 15 1
15 12 1
12 16 1
15 17 1
17 12 1
14 18 1
18 19 1
19 18 1
18 20 1
20 21 1
19 21 1
22 21 1
22 24 1
24 25 1
25 26 1
26 27 1
27 26 1
26 28 1
28 26 1
26 29 1
29 30 1
30 29 1
29 31 1
31 15 1
32 33 1
33 15 1
15 34 1
35 32 1
35 34 1
32 36 1
23 36 1
37 38 1
38 34 1
34 39 1
32 39 1
40 34 1
14 43 1
43 34 1
32 44 1
44 32 1
45 46 1
46 14 1
14 47 1
47 14 1
45 48 1
48 14 1
14 49 1
32 49 1
32 50 1
34 14 1
51 41 1
51 52 1
52 53 1
53 54 1
54 32 1
41 14 1
14 41 1
14 55 1
55 56 1
32 57 1
57 32 1
14 58 1
14 59 1
59 32 1
34 60 1
60 41 1
58 41 1
32 61 1
61 32 1
32 63 1
63 64 1
64 32 1
34 65 1
32 65 1
62 65 1
62 66 1
66 62 1
32 67 1
67 27 1
14 62 1
62 14 1
41 25 1
25 27 1
27 70 1
32 20 1
20 27 1
45 32 1
27 45 1
32 9 1
9 27 1
71 27 1
27 72 1
72 32 1
71 73 1
73 74 1
74 71 1
71 74 1
74 32 1
32 75 1
75 76 1
76 71 1
71 77 1
77 71 1
23 77 1
78 77 1
77 79 1
78 79 1
71 78 1
77 44 1
44 80 1
80 81 1
81 78 1
71 44 1
78 23 1
23 44 1
44 23 1
23 80 1
23 78 1
78 80 1
