3 12 6
12 3 4
69 12 4
12 69 4
3 19 3
19 3 3
8 3 3
43 125 3
3 8 2
1 2 1
2 3 1
3 4 1
4 3 1
3 5 1
5 6 1
6 7 1
7 3 1
8 9 1
9 3 1
3 10 1
10 11 1
11 12 1
12 13 1
13 14 1
14 15 1
15 14 1
14 16 1
16 14 1
14 17 1
17 14 1
14 18 1
18 14 1
14 12 1
12 19 1
19 20 1
20 21 1
21 22 1
22 23 1
23 24 1
24 16 1
16 24 1
24 25 1
25 26 1
26 19 1
19 14 1
14 27 1
27 28 1
28 29 1
29 30 1
30 31 1
31 32 1
32 33 1
33 34 1
34 35 1
35 36 1
36 37 1
37 38 1
38 39 1
39 35 1
35 40 1
40 37 1
37 41 1
41 42 1
42 43 1
43 21 1
21 44 1
44 45 1
45 21 1
21 45 1
45 14 1
14 46 1
46 3 1
19 47 1
47 48 1
48 19 1
3 49 1
49 50 1
50 51 1
51 12 1
12 52 1
52 3 1
12 53 1
53 3 1
12 54 1
54 55 1
55 56 1
56 3 1
3 57 1
57 12 1
12 58 1
58 3 1
3 59 1
59 56 1
56 60 1
60 12 1
12 61 1
61 62 1
62 63 1
63 64 1
64 65 1
65 8 1
3 66 1
66 3 1
3 7 1
7 8 1
3 56 1
56 12 1
12 67 1
67 12 1
12 68 1
68 69 1
69 70 1
70 71 1
71 69 1
69 72 1
72 69 1
69 73 1
73 74 1
74 12 1
12 75 1
75 76 1
76 12 1
12 77 1
77 78 1
78 79 1
79 12 1
12 80 1
80 81 1
81 12 1
12 82 1
82 12 1
12 83 1
83 23 1
23 84 1
84 56 1
56 85 1
85 86 1
86 87 1
87 12 1
12 88 1
88 89 1
89 12 1
12 8 1
8 90 1
90 3 1
3 91 1
91 3 1
3 70 1
70 7 1
7 92 1
92 93 1
93 3 1
3 94 1
94 3 1
3 95 1
95 4 1
4 96 1
96 97 1
97 98 1
98 99 1
99 100 1
100 101 1
101 102 1
102 103 1
103 104 1
104 105 1
105 106 1
106 107 1
107 108 1
108 109 1
109 24 1
24 110 1
110 111 1
111 112 1
112 113 1
113 114 1
114 115 1
115 12 1
12 116 1
116 117 1
117 118 1
118 119 1
119 12 1
12 119 1
119 120 1
120 121 1
121 43 1
43 122 1
122 12 1
12 43 1
43 123 1
123 124 1
124 125 1
125 126 1
126 125 1
125 127 1
127 43 1
125 43 1
125 69 1
12 128 1
128 129 1
129 69 1
69 125 1
125 130 1
130 131 1
131 125 1
125 131 1
131 132 1
132 133 1
133 131 1
131 134 1
134 131 1
131 43 1
125 12 1
12 135 1
135 136 1
136 12 1
69 137 1
137 136 1
136 138 1
138 139 1
139 140 1
140 12 1
12 141 1
141 142 1
142 141 1
141 143 1
143 127 1
127 144 1
144 43 1
43 145 1
145 146 1
146 43 1
43 147 1
147 148 1
148 149 1
149 150 1
