8 9 43
27 10 42
9 38 41
10 27 39
2 24 38
24 2 35
38 9 35
9 8 32
5 18 27
18 5 26
52 5 23
5 52 20
19 73 17
5 80 17
73 19 16
80 5 15
3 4 14
19 33 14
33 19 13
49 3 13
3 49 12
22 2 11
4 3 10
19 20 8
20 19 8
28 27 8
2 37 8
99 3 8
2 13 7
2 22 7
13 2 7
3 99 7
27 28 6
37 2 6
72 19 6
5 97 6
97 5 6
19 29 5
35 9 5
9 35 5
41 5 5
24 13 5
3 61 5
19 72 5
49 4 5
17 5 4
2 23 4
23 2 4
29 19 4
19 54 4
10 28 4
5 55 4
55 5 4
19 58 4
58 19 4
59 5 4
3 62 4
67 5 4
5 71 4
71 5 4
73 72 4
72 73 4
9 83 4
85 10 4
10 85 4
4 49 4
2 101 4
101 2 4
3 14 3
14 3 3
5 17 3
19 8 3
29 31 3
9 3 3
5 41 3
54 19 3
28 10 3
5 59 3
61 3 3
62 3 3
61 49 3
49 61 3
74 73 3
75 38 3
80 24 3
82 19 3
83 9 3
9 10 2
2 12 2
12 2 2
13 3 2
14 4 2
4 14 2
18 19 2
23 24 2
31 30 2
30 29 2
19 31 2
31 19 2
19 32 2
32 19 2
19 34 2
9 37 2
38 8 2
3 39 2
39 3 2
41 42 2
42 41 2
5 8 2
38 19 2
19 9 2
3 48 2
10 5 2
5 19 2
5 9 2
9 19 2
19 56 2
56 19 2
61 62 2
19 69 2
5 67 2
67 27 2
10 38 2
73 74 2
72 74 2
38 75 2
38 10 2
38 77 2
77 78 2
78 77 2
19 38 2
24 9 2
19 82 2
2 9 2
4 2 2
90 89 2
90 80 2
80 90 2
9 98 2
1 2 1
2 3 1
4 5 1
5 6 1
6 5 1
5 7 1
7 8 1
10 11 1
11 2 1
3 15 1
15 14 1
14 15 1
15 10 1
10 16 1
16 10 1
10 17 1
20 21 1
21 20 1
9 22 1
24 23 1
2 25 1
25 24 1
2 26 1
26 24 1
4 10 1
27 18 1
29 30 1
30 19 1
31 29 1
34 19 1
34 33 1
33 35 1
35 36 1
36 8 1
37 38 1
3 10 1
10 40 1
40 41 1
41 43 1
43 41 1
19 44 1
44 19 1
38 45 1
45 24 1
37 46 1
46 2 1
2 46 1
46 3 1
3 47 1
47 3 1
48 3 1
48 49 1
49 41 1
5 50 1
50 5 1
5 10 1
10 51 1
51 27 1
52 53 1
53 5 1
54 38 1
49 10 1
37 23 1
24 8 1
38 57 1
57 19 1
19 10 1
10 19 1
33 28 1
10 59 1
59 60 1
60 59 1
5 3 1
62 61 1
61 8 1
9 49 1
62 63 1
63 64 1
64 63 1
63 9 1
9 63 1
63 65 1
65 3 1
62 66 1
66 61 1
61 67 1
59 67 1
67 59 1
5 68 1
68 19 1
69 70 1
70 19 1
69 19 1
4 22 1
2 67 1
9 7 1
7 49 1
49 19 1
19 67 1
27 67 1
38 27 1
27 24 1
2 72 1
72 2 1
24 10 1
10 3 1
4 73 1
74 19 1
73 75 1
10 24 1
24 76 1
76 24 1
13 24 1
2 27 1
27 4 1
4 38 1
77 38 1
77 75 1
75 9 1
38 2 1
24 72 1
19 79 1
79 19 1
38 78 1
78 38 1
38 7 1
7 2 1
24 52 1
5 24 1
13 80 1
13 5 1
80 2 1
38 5 1
24 38 1
9 81 1
81 9 1
73 82 1
38 52 1
52 38 1
38 83 1
83 52 1
5 83 1
83 19 1
19 84 1
84 9 1
83 84 1
84 19 1
19 85 1
85 52 1
5 72 1
72 86 1
86 72 1
72 87 1
87 82 1
82 72 1
19 5 1
10 88 1
88 9 1
9 2 1
9 4 1
37 49 1
4 80 1
80 89 1
89 80 1
5 4 1
49 90 1
89 90 1
90 91 1
91 49 1
24 90 1
89 2 1
2 49 1
3 73 1
73 91 1
91 82 1
82 87 1
87 72 1
73 87 1
87 92 1
92 87 1
87 93 1
93 94 1
94 95 1
95 82 1
82 96 1
96 2 1
2 5 1
97 10 1
10 9 1
98 9 1
98 10 1
10 22 1
24 22 1
38 97 1
9 99 1
3 52 1
19 2 1
2 100 1
100 2 1
