6 2 44
2 6 35
2 3 27
3 2 27
11 6 21
6 11 20
5 2 16
2 5 16
2 4 15
4 2 14
6 4 13
4 6 12
5 6 11
11 2 10
4 5 9
6 5 8
2 11 8
56 2 8
5 4 7
6 3 7
2 56 6
16 6 5
3 6 5
11 4 5
1 4 4
4 1 4
7 8 4
2 16 4
4 11 4
6 47 3
60 56 3
2 60 3
1 5 2
13 14 2
14 13 2
3 15 2
15 3 2
5 8 2
16 2 2
2 7 2
8 5 2
36 6 2
45 46 2
47 6 2
60 2 2
3 72 2
72 2 2
1 2 1
3 1 1
5 7 1
8 9 1
9 7 1
8 7 1
7 4 1
4 10 1
10 6 1
2 12 1
12 13 1
13 5 1
5 3 1
2 15 1
15 2 1
4 12 1
12 10 1
10 11 1
5 17 1
17 5 1
5 18 1
18 19 1
19 5 1
2 1 1
4 20 1
20 21 1
21 6 1
2 22 1
22 4 1
2 23 1
23 24 1
24 2 1
8 25 1
25 5 1
2 26 1
26 27 1
27 28 1
28 6 1
6 29 1
29 2 1
2 30 1
30 4 1
5 16 1
4 31 1
31 4 1
8 31 1
31 32 1
32 31 1
31 2 1
2 8 1
8 33 1
33 7 1
8 34 1
34 35 1
35 8 1
7 36 1
6 36 1
2 37 1
37 11 1
6 38 1
38 6 1
6 39 1
39 40 1
40 41 1
41 6 1
6 42 1
42 43 1
43 39 1
39 44 1
44 6 1
6 45 1
45 41 1
41 45 1
46 45 1
46 11 1
11 16 1
47 48 1
48 6 1
2 49 1
49 6 1
6 50 1
50 2 1
6 51 1
51 11 1
2 52 1
52 6 1
6 53 1
53 54 1
54 11 1
2 55 1
55 11 1
11 1 1
1 56 1
2 57 1
57 2 1
56 4 1
4 56 1
56 58 1
58 6 1
2 59 1
59 60 1
56 60 1
6 58 1
58 61 1
61 6 1
6 62 1
62 56 1
56 63 1
63 56 1
56 6 1
6 16 1
4 9 1
9 6 1
2 64 1
64 4 1
2 65 1
65 2 1
3 65 1
65 6 1
4 66 1
66 67 1
67 68 1
68 3 1
2 69 1
69 70 1
70 1 1
1 16 1
16 3 1
3 71 1
71 2 1
2 73 1
73 3 1
