2 3 19
3 2 18
5 6 13
6 5 11
3 16 9
16 3 9
21 3 9
3 21 8
9 17 7
5 7 7
20 14 6
14 20 6
7 5 6
8 9 5
17 9 5
3 5 3
17 8 3
3 19 3
19 3 3
3 4 2
10 11 2
9 8 2
16 8 2
23 2 2
7 20 2
20 7 2
1 2 1
4 3 1
4 5 1
6 7 1
7 8 1
9 7 1
7 10 1
11 10 1
11 5 1
5 12 1
12 13 1
13 14 1
14 15 1
15 14 1
14 3 1
6 17 1
9 18 1
18 9 1
8 17 1
17 3 1
19 6 1
6 3 1
3 6 1
6 10 1
10 20 1
20 3 1
3 22 1
22 5 1
5 19 1
7 16 1
8 16 1
8 23 1
23 24 1
24 23 1
2 23 1
2 16 1
16 25 1
25 3 1
5 26 1
26 27 1
27 5 1
5 3 1
3 28 1
28 21 1
3 7 1
7 29 1
