2 43 80
43 2 79
47 2 27
2 5 22
5 2 22
2 47 22
2 11 20
11 2 20
43 11 15
11 43 15
2 16 14
16 2 13
43 47 13
43 58 13
58 43 12
49 2 9
47 43 9
2 14 7
14 2 7
2 49 7
2 7 6
7 2 6
16 5 6
2 54 6
54 2 6
2 4 5
2 31 5
2 33 5
52 43 5
47 11 5
4 2 4
5 16 4
5 4 4
4 5 4
31 2 4
35 34 4
47 31 4
31 47 4
43 52 4
60 43 4
2 90 4
2 15 3
32 2 3
32 31 3
2 35 3
40 43 3
47 49 3
49 47 3
43 55 3
55 43 3
43 60 3
43 63 3
43 64 3
90 2 3
8 2 2
10 2 2
5 15 2
15 2 2
2 20 2
7 16 2
2 24 2
2 26 2
26 2 2
2 29 2
31 32 2
33 31 2
2 32 2
33 32 2
34 35 2
33 2 2
35 32 2
37 40 2
43 40 2
32 38 2
43 53 2
53 43 2
43 56 2
56 43 2
63 43 2
64 43 2
2 71 2
71 2 2
2 73 2
11 75 2
76 2 2
2 76 2
43 77 2
77 78 2
78 77 2
77 43 2
43 79 2
2 80 2
80 2 2
11 47 2
65 11 2
75 11 2
11 83 2
1 2 1
2 3 1
3 2 1
5 6 1
6 2 1
2 8 1
2 9 1
9 2 1
2 10 1
11 12 1
12 2 1
2 13 1
13 2 1
5 14 1
14 5 1
15 5 1
16 7 1
2 17 1
17 2 1
2 18 1
18 19 1
19 5 1
20 21 1
21 22 1
22 2 1
5 7 1
15 23 1
23 2 1
24 2 1
24 25 1
25 2 1
2 27 1
27 28 1
28 2 1
2 28 1
28 7 1
16 8 1
29 2 1
29 30 1
30 2 1
32 33 1
31 34 1
34 2 1
35 33 1
2 36 1
36 2 1
32 34 1
34 37 1
37 38 1
38 39 1
39 38 1
38 37 1
40 41 1
41 37 1
40 42 1
42 40 1
43 44 1
44 43 1
43 32 1
38 32 1
38 31 1
35 45 1
45 46 1
46 47 1
47 48 1
48 47 1
32 35 1
34 49 1
31 49 1
33 35 1
2 50 1
50 2 1
2 51 1
51 2 1
2 52 1
31 43 1
54 43 1
55 6 1
6 43 1
2 55 1
47 32 1
31 35 1
34 33 1
33 47 1
43 57 1
57 43 1
58 2 1
43 59 1
59 60 1
43 61 1
61 62 1
62 2 1
63 64 1
64 65 1
65 43 1
60 2 1
64 66 1
66 2 1
43 67 1
67 47 1
47 64 1
2 68 1
68 32 1
32 43 1
43 69 1
69 43 1
64 60 1
2 70 1
70 47 1
71 72 1
72 71 1
73 74 1
74 2 1
73 2 1
2 72 1
72 2 1
20 2 1
75 43 1
43 71 1
71 43 1
11 76 1
76 43 1
79 43 1
79 2 1
31 81 1
81 47 1
2 64 1
64 54 1
2 63 1
63 47 1
2 82 1
82 83 1
83 84 1
84 11 1
11 85 1
85 64 1
64 2 1
47 85 1
85 47 1
47 65 1
65 47 1
11 86 1
86 87 1
87 65 1
2 86 1
86 75 1
11 88 1
88 47 1
47 86 1
86 65 1
11 65 1
65 64 1
64 11 1
11 66 1
66 11 1
83 11 1
83 89 1
89 2 1
15 16 1
7 4 1
4 10 1
2 40 1
40 2 1
4 43 1
