5 9 151
9 5 141
17 9 38
9 17 36
45 5 17
30 5 15
5 45 14
9 61 13
61 9 13
59 25 12
5 49 11
36 25 10
49 5 10
25 59 10
25 36 9
9 30 8
5 30 8
9 49 8
49 9 8
9 27 7
27 9 5
9 91 5
91 9 5
25 5 4
58 9 4
6 10 3
27 5 3
33 9 3
9 33 3
5 13 3
54 25 3
10 6 2
5 22 2
33 5 2
25 37 2
36 27 2
27 36 2
13 5 2
43 5 2
5 43 2
9 45 2
42 46 2
46 42 2
9 42 2
42 9 2
50 5 2
25 54 2
9 58 2
36 59 2
59 55 2
55 59 2
1 2 1
2 3 1
3 4 1
4 5 1
5 6 1
6 5 1
5 7 1
7 8 1
8 9 1
9 6 1
10 9 1
9 11 1
11 12 1
12 13 1
13 12 1
12 14 1
14 15 1
15 16 1
16 17 1
17 18 1
18 17 1
17 19 1
19 20 1
20 21 1
21 5 1
22 23 1
23 24 1
24 25 1
9 26 1
26 5 1
5 27 1
27 28 1
28 27 1
5 29 1
29 5 1
30 9 1
5 31 1
31 32 1
32 33 1
9 34 1
34 9 1
5 33 1
5 35 1
35 9 1
22 36 1
37 25 1
36 38 1
38 37 1
37 39 1
39 25 1
25 40 1
40 41 1
41 36 1
27 25 1
25 27 1
13 42 1
42 43 1
43 44 1
44 45 1
45 42 1
42 45 1
9 46 1
46 5 1
5 47 1
47 5 1
5 23 1
23 48 1
48 9 1
49 42 1
42 50 1
5 50 1
5 51 1
51 52 1
52 53 1
53 5 1
5 54 1
37 23 1
23 36 1
5 55 1
55 56 1
56 57 1
57 58 1
9 36 1
59 36 1
25 60 1
60 23 1
23 37 1
37 9 1
61 58 1
9 55 1
55 61 1
9 59 1
36 55 1
55 36 1
25 61 1
61 62 1
62 25 1
5 25 1
36 63 1
63 64 1
64 5 1
5 64 1
64 65 1
65 64 1
64 59 1
59 66 1
66 5 1
5 67 1
67 22 1
22 68 1
68 69 1
69 59 1
59 5 1
5 70 1
70 71 1
71 72 1
72 73 1
73 74 1
74 9 1
9 75 1
75 9 1
9 76 1
76 60 1
60 9 1
9 77 1
77 78 1
78 79 1
79 80 1
80 81 1
81 59 1
59 82 1
82 83 1
83 84 1
84 85 1
85 5 1
5 86 1
86 87 1
87 23 1
23 5 1
5 88 1
88 9 1
9 23 1
23 89 1
89 5 1
5 90 1
90 9 1
9 25 1
25 9 1
9 92 1
92 9 1
9 93 1
93 9 1
9 94 1
94 9 1
9 95 1
95 96 1
96 97 1
97 17 1
9 98 1
98 17 1
9 16 1
16 9 1
9 99 1
99 100 1
100 17 1
17 101 1
101 102 1
102 103 1
103 104 1
104 105 1
105 17 1
17 106 1
106 5 1
5 17 1
17 5 1
5 107 1
107 42 1
42 108 1
108 42 1
42 109 1
109 17 1
17 110 1
110 9 1
5 111 1
