3 17 87
17 3 83
3 2 76
2 3 72
3 15 64
15 3 62
23 24 10
24 23 10
2 9 8
2 15 8
17 2 8
16 17 7
17 16 7
15 28 7
9 3 7
15 2 7
2 17 7
3 18 6
28 15 6
15 17 6
9 2 5
3 13 5
18 3 5
3 20 5
20 3 5
28 17 5
3 9 5
6 3 4
13 3 4
3 19 4
17 28 4
17 30 4
34 24 4
2 6 3
19 3 3
31 17 3
24 34 3
17 15 3
30 45 3
18 17 3
17 18 3
3 54 3
3 6 2
3 12 2
3 21 2
21 3 2
23 3 2
30 17 2
30 18 2
18 31 2
3 32 2
18 42 2
45 46 2
32 17 2
17 32 2
53 3 2
54 15 2
15 53 2
54 3 2
3 57 2
57 3 2
15 61 2
12 3 2
13 2 2
3 66 2
66 3 2
2 69 2
69 2 2
1 2 1
2 4 1
4 5 1
5 6 1
6 2 1
3 7 1
7 3 1
3 8 1
8 3 1
3 10 1
10 11 1
11 2 1
12 13 1
13 14 1
14 3 1
15 16 1
17 22 1
22 20 1
20 23 1
23 25 1
25 23 1
3 23 1
24 17 1
16 3 1
19 26 1
26 3 1
3 27 1
27 3 1
15 29 1
29 15 1
31 18 1
31 32 1
32 31 1
17 31 1
17 25 1
25 17 1
17 33 1
33 31 1
32 18 1
18 33 1
33 17 1
30 15 1
15 34 1
24 35 1
35 24 1
24 36 1
36 24 1
23 37 1
37 24 1
34 38 1
38 39 1
39 15 1
17 40 1
40 28 1
17 38 1
38 15 1
28 41 1
41 17 1
42 18 1
42 23 1
23 32 1
32 3 1
17 43 1
43 3 1
17 20 1
20 15 1
17 9 1
9 44 1
44 3 1
28 30 1
18 30 1
46 45 1
46 30 1
45 30 1
45 2 1
9 47 1
47 48 1
48 3 1
9 14 1
14 9 1
2 28 1
17 19 1
19 17 1
2 49 1
49 50 1
50 17 1
32 34 1
24 51 1
51 23 1
15 19 1
19 50 1
50 19 1
19 18 1
18 15 1
15 24 1
24 19 1
19 15 1
15 47 1
47 15 1
15 52 1
52 15 1
3 52 1
52 3 1
17 53 1
53 15 1
15 54 1
3 55 1
55 3 1
17 56 1
56 3 1
3 58 1
58 3 1
15 59 1
59 17 1
17 60 1
60 3 1
2 61 1
61 62 1
62 2 1
61 15 1
61 2 1
3 63 1
63 64 1
64 3 1
17 65 1
65 12 1
2 13 1
66 2 1
2 47 1
47 2 1
2 66 1
3 67 1
67 3 1
3 68 1
68 3 1
2 70 1
70 2 1
2 71 1
71 72 1
72 17 1
17 72 1
72 3 1
2 73 1
73 17 1
17 73 1
73 2 1
2 74 1
74 75 1
75 2 1
6 62 1
62 15 1
