4 2 15
2 4 12
5 1 8
1 5 7
6 16 7
16 6 7
2 1 5
2 18 5
18 2 5
17 2 5
23 9 5
9 23 5
2 5 4
5 2 4
5 8 4
3 2 4
1 2 3
1 3 3
8 5 3
2 3 3
8 16 3
1 17 3
17 4 3
3 4 2
4 3 2
3 1 2
5 6 2
6 2 2
2 8 2
8 6 2
2 13 2
1 4 2
1 6 2
6 1 2
4 1 2
3 17 2
2 17 2
4 17 2
2 6 2
2 21 2
21 2 2
9 5 2
5 9 2
2 7 1
7 5 1
8 2 1
6 5 1
6 9 1
9 8 1
8 10 1
10 8 1
8 1 1
1 11 1
11 1 1
1 12 1
12 1 1
13 14 1
14 15 1
15 3 1
6 8 1
16 2 1
16 1 1
17 3 1
2 19 1
19 2 1
2 20 1
20 3 1
6 21 1
21 4 1
2 22 1
22 5 1
1 8 1
6 4 1
4 6 1
1 23 1
17 14 1
14 17 1
13 15 1
15 4 1
17 8 1
3 24 1
24 17 1
4 18 1
18 4 1
16 5 1
23 16 1
