10 6 10
6 10 9
5 6 8
6 5 7
15 21 7
12 15 5
21 15 5
12 22 5
15 12 4
22 12 4
3 4 3
4 3 3
5 4 3
3 6 3
5 13 3
13 5 3
4 6 2
6 4 2
8 5 2
5 8 2
6 3 2
11 6 2
6 1 2
1 6 2
6 11 2
11 5 2
1 15 2
12 13 2
16 17 2
17 16 2
18 5 2
10 12 2
4 10 2
16 20 2
20 6 2
1 2 1
2 1 1
1 3 1
3 5 1
5 1 1
1 5 1
5 7 1
7 5 1
6 8 1
8 9 1
9 10 1
10 11 1
11 12 1
12 11 1
5 14 1
14 1 1
1 4 1
4 1 1
13 16 1
16 5 1
4 5 1
5 3 1
6 18 1
5 19 1
19 5 1
5 18 1
5 12 1
12 1 1
1 13 1
13 20 1
20 19 1
19 1 1
21 19 1
19 11 1
12 10 1
6 22 1
15 6 1
10 4 1
6 13 1
13 14 1
14 12 1
13 15 1
15 23 1
23 21 1
21 24 1
24 5 1
5 10 1
12 20 1
20 15 1
15 13 1
13 12 1
21 16 1
20 16 1
6 12 1
22 14 1
14 20 1
6 14 1
14 5 1
4 14 1
14 6 1
6 20 1
20 12 1
22 6 1
6 25 1
