2 1 18
1 2 17
2 3 12
3 2 11
4 2 8
8 12 8
2 4 7
10 2 7
2 10 7
5 6 5
6 5 5
12 8 5
5 13 5
3 4 4
1 10 4
10 11 4
11 8 4
1 5 4
4 3 3
3 5 3
10 1 3
8 11 3
13 2 3
1 4 3
2 11 2
11 10 2
2 8 2
8 1 2
13 5 2
2 6 2
6 2 2
4 1 2
11 1 2
4 10 2
10 4 2
5 7 1
7 8 1
8 9 1
9 10 1
10 12 1
12 10 1
8 10 1
8 2 1
3 10 1
10 8 1
5 1 1
1 3 1
1 8 1
12 14 1
14 8 1
12 2 1
2 15 1
15 2 1
10 3 1
5 2 1
11 12 1
12 11 1
11 2 1
4 11 1
11 3 1
3 1 1
2 13 1
13 8 1
12 16 1
16 9 1
9 3 1
5 3 1
2 17 1
17 18 1
18 17 1
17 5 1
5 15 1
15 5 1
5 19 1
