5 6 35
6 5 35
5 11 20
11 5 20
18 5 20
5 18 19
5 9 15
9 5 14
5 25 13
25 5 12
17 5 8
10 5 7
5 17 7
3 22 7
5 23 7
3 4 6
5 10 6
3 15 6
15 3 6
22 3 6
23 5 6
4 3 5
5 27 4
27 5 4
9 31 4
31 9 4
5 20 3
9 6 3
6 9 3
17 26 3
26 17 3
35 9 3
9 35 3
8 9 2
9 8 2
9 10 2
13 12 2
17 18 2
19 3 2
20 5 2
24 25 2
25 9 2
26 5 2
36 9 2
9 36 2
37 25 2
1 2 1
2 3 1
4 5 1
6 7 1
7 5 1
5 8 1
10 9 1
8 10 1
9 12 1
12 13 1
12 14 1
14 3 1
3 16 1
16 17 1
18 17 1
9 19 1
3 19 1
3 13 1
12 17 1
20 18 1
5 21 1
21 3 1
22 23 1
23 24 1
24 5 1
5 24 1
25 26 1
5 26 1
18 28 1
28 18 1
18 29 1
29 9 1
10 17 1
17 27 1
27 17 1
17 30 1
30 5 1
9 32 1
32 5 1
5 32 1
32 24 1
23 6 1
5 33 1
33 9 1
9 34 1
34 35 1
35 36 1
36 23 1
23 37 1
25 37 1
