11 7 85
7 11 82
7 17 36
17 7 36
7 9 18
28 7 16
7 28 16
6 7 15
9 7 14
7 6 14
7 18 14
18 7 13
24 7 12
7 24 11
14 7 10
59 7 10
7 59 10
7 14 9
15 11 6
11 15 6
11 19 6
19 11 5
10 11 4
11 10 4
3 4 3
7 8 2
8 7 2
15 7 2
7 36 2
58 7 2
7 58 2
28 58 2
1 2 1
2 3 1
4 5 1
5 6 1
7 10 1
10 12 1
12 10 1
10 13 1
13 9 1
9 14 1
14 15 1
9 16 1
16 7 1
18 6 1
6 11 1
11 20 1
20 21 1
21 15 1
15 22 1
22 15 1
15 23 1
23 15 1
9 25 1
25 26 1
26 7 1
7 26 1
26 11 1
19 27 1
27 28 1
9 29 1
29 30 1
30 11 1
11 31 1
31 7 1
7 32 1
32 11 1
11 3 1
4 33 1
33 7 1
7 34 1
34 7 1
7 35 1
35 7 1
36 11 1
36 7 1
7 37 1
37 7 1
7 38 1
38 7 1
7 39 1
39 7 1
11 40 1
40 11 1
7 41 1
41 14 1
14 42 1
42 14 1
7 43 1
43 11 1
7 44 1
44 45 1
45 18 1
18 46 1
46 7 1
7 47 1
47 11 1
7 48 1
48 9 1
9 11 1
11 49 1
49 7 1
9 3 1
4 17 1
7 50 1
50 17 1
7 51 1
51 24 1
17 52 1
52 53 1
53 7 1
17 54 1
54 7 1
7 55 1
55 7 1
7 29 1
29 7 1
28 56 1
56 57 1
57 58 1
58 28 1
58 56 1
56 59 1
59 28 1
58 59 1
59 57 1
57 60 1
60 7 1
