9 36 63
36 9 63
9 23 44
23 9 41
9 22 36
9 10 35
22 9 35
10 9 33
60 9 23
9 60 23
44 9 16
9 44 15
9 27 11
27 9 9
31 9 7
23 44 6
9 53 6
78 9 6
9 106 6
9 31 5
9 46 5
53 44 5
9 78 5
23 27 4
44 23 4
46 9 4
53 9 4
9 75 4
75 9 4
106 9 4
9 30 3
30 31 3
30 9 3
53 23 3
23 53 3
44 53 3
72 22 3
9 84 3
9 87 3
8 9 2
11 9 2
9 8 2
17 9 2
9 21 2
26 9 2
27 23 2
35 36 2
31 30 2
44 27 2
27 44 2
64 9 2
9 70 2
22 72 2
78 79 2
84 23 2
84 9 2
87 9 2
9 72 2
22 36 2
72 36 2
91 92 2
6 9 2
9 6 2
105 9 2
106 44 2
1 2 1
2 3 1
3 4 1
4 5 1
5 6 1
6 7 1
7 8 1
10 11 1
9 11 1
10 12 1
12 9 1
8 13 1
13 14 1
14 15 1
15 16 1
16 17 1
9 17 1
8 18 1
18 19 1
19 20 1
20 19 1
19 9 1
21 9 1
21 8 1
22 23 1
9 24 1
24 9 1
23 8 1
8 25 1
25 9 1
22 8 1
8 26 1
27 28 1
28 27 1
9 29 1
29 9 1
9 32 1
32 33 1
33 23 1
23 30 1
30 23 1
23 34 1
34 35 1
36 35 1
36 31 1
30 37 1
37 31 1
9 38 1
38 30 1
9 39 1
39 9 1
27 40 1
40 41 1
41 9 1
31 42 1
42 9 1
9 43 1
43 44 1
23 31 1
31 23 1
44 45 1
45 9 1
44 30 1
46 47 1
47 46 1
46 44 1
44 46 1
46 23 1
27 48 1
48 9 1
27 49 1
49 50 1
50 51 1
51 23 1
23 51 1
51 52 1
52 53 1
23 54 1
54 9 1
27 53 1
53 46 1
53 55 1
55 26 1
26 56 1
56 23 1
46 57 1
57 58 1
58 9 1
9 59 1
59 60 1
60 61 1
61 9 1
44 62 1
62 9 1
44 63 1
63 64 1
9 64 1
36 53 1
22 65 1
65 22 1
9 66 1
66 9 1
9 67 1
67 9 1
23 68 1
68 69 1
69 9 1
70 26 1
53 71 1
71 53 1
53 72 1
22 73 1
73 74 1
74 75 1
75 76 1
76 77 1
77 78 1
79 78 1
79 80 1
80 9 1
9 81 1
81 23 1
9 82 1
82 9 1
9 83 1
83 84 1
84 85 1
85 84 1
23 84 1
84 86 1
86 23 1
23 86 1
86 9 1
87 88 1
88 72 1
72 81 1
81 36 1
72 9 1
36 78 1
23 75 1
75 44 1
44 22 1
36 68 1
68 23 1
23 89 1
89 9 1
9 56 1
56 9 1
9 89 1
89 56 1
56 60 1
60 90 1
90 60 1
60 72 1
9 91 1
92 91 1
92 93 1
93 94 1
94 9 1
36 22 1
9 95 1
95 9 1
9 14 1
14 96 1
96 97 1
97 98 1
98 9 1
9 99 1
99 9 1
10 23 1
23 22 1
36 10 1
9 100 1
100 22 1
22 6 1
6 101 1
101 9 1
9 102 1
102 9 1
44 103 1
103 53 1
53 36 1
36 104 1
104 105 1
9 105 1
44 36 1
9 107 1
107 108 1
108 9 1
36 109 1
109 110 1
110 111 1
111 9 1
70 92 1
92 112 1
112 113 1
113 114 1
114 115 1
115 116 1
116 117 1
117 118 1
118 119 1
119 120 1
120 121 1
121 122 1
122 123 1
123 124 1
124 125 1
125 126 1
126 122 1
122 9 1
