10 38 63
38 10 63
10 25 44
25 10 41
10 24 36
10 11 35
24 10 35
11 10 33
63 10 23
10 63 23
46 10 16
10 46 15
10 29 11
29 10 8
33 10 7
25 46 6
10 56 6
80 10 6
10 108 6
10 33 5
10 48 5
56 46 5
10 80 5
25 29 4
46 25 4
48 10 4
56 10 4
10 77 4
77 10 4
108 10 4
10 32 3
32 33 3
32 10 3
56 25 3
25 56 3
46 56 3
74 24 3
10 86 3
10 89 3
12 10 2
10 8 2
19 10 2
10 23 2
28 10 2
29 25 2
37 38 2
33 32 2
46 29 2
29 46 2
51 10 2
66 10 2
10 72 2
24 74 2
80 81 2
86 25 2
86 10 2
89 10 2
10 74 2
24 38 2
74 38 2
93 94 2
6 10 2
10 6 2
107 10 2
108 46 2
1 2 1
2 3 1
3 4 1
4 5 1
5 6 1
6 7 1
7 8 1
8 9 1
9 10 1
11 12 1
10 12 1
11 13 1
13 10 1
8 14 1
14 15 1
15 16 1
16 17 1
17 18 1
18 19 1
10 19 1
8 20 1
20 21 1
21 22 1
22 21 1
21 10 1
23 10 1
23 8 1
8 10 1
24 25 1
10 26 1
26 10 1
25 8 1
8 27 1
27 10 1
24 8 1
8 28 1
29 30 1
30 29 1
10 31 1
31 10 1
10 34 1
34 35 1
35 25 1
25 32 1
32 25 1
25 36 1
36 37 1
38 37 1
38 33 1
32 39 1
39 33 1
10 40 1
40 32 1
10 41 1
41 10 1
29 42 1
42 43 1
43 10 1
33 44 1
44 10 1
10 45 1
45 46 1
25 33 1
33 25 1
46 47 1
47 10 1
46 32 1
48 49 1
49 48 1
48 46 1
46 48 1
48 25 1
29 50 1
50 10 1
29 51 1
29 52 1
52 53 1
53 54 1
54 25 1
25 54 1
54 55 1
55 56 1
25 57 1
57 10 1
29 56 1
56 48 1
56 58 1
58 28 1
28 59 1
59 25 1
48 60 1
60 61 1
61 10 1
10 62 1
62 63 1
63 51 1
46 64 1
64 10 1
46 65 1
65 66 1
10 66 1
38 56 1
24 67 1
67 24 1
10 68 1
68 10 1
10 69 1
69 10 1
25 70 1
70 71 1
71 10 1
72 28 1
56 73 1
73 56 1
56 74 1
24 75 1
75 76 1
76 77 1
77 78 1
78 79 1
79 80 1
81 80 1
81 82 1
82 10 1
10 83 1
83 25 1
10 84 1
84 10 1
10 85 1
85 86 1
86 87 1
87 86 1
25 86 1
86 88 1
88 25 1
25 88 1
88 10 1
89 90 1
90 74 1
74 83 1
83 38 1
74 10 1
38 80 1
25 77 1
77 46 1
46 24 1
38 70 1
70 25 1
25 91 1
91 10 1
10 59 1
59 10 1
10 91 1
91 59 1
59 63 1
63 92 1
92 63 1
63 74 1
10 93 1
94 93 1
94 95 1
95 96 1
96 10 1
38 24 1
10 97 1
97 10 1
10 98 1
98 99 1
99 100 1
100 10 1
10 101 1
101 10 1
11 25 1
25 24 1
38 11 1
10 102 1
102 24 1
24 6 1
6 103 1
103 10 1
10 104 1
104 10 1
46 105 1
105 56 1
56 38 1
38 106 1
106 107 1
10 107 1
46 38 1
10 109 1
109 110 1
110 10 1
38 111 1
111 112 1
112 113 1
113 10 1
72 94 1
94 114 1
114 115 1
115 116 1
116 117 1
117 118 1
118 119 1
119 120 1
120 121 1
121 122 1
122 123 1
123 124 1
124 125 1
125 126 1
126 127 1
127 128 1
128 124 1
124 10 1
