13 2 63
2 13 60
18 7 47
7 18 46
2 15 41
19 2 39
2 19 39
15 19 38
15 2 36
19 15 31
5 15 24
29 7 23
15 5 22
7 29 21
5 13 15
13 5 14
2 23 11
23 2 11
35 2 11
2 51 11
51 2 11
2 35 10
5 4 9
4 5 9
15 7 9
18 15 9
7 2 8
7 15 8
15 18 8
46 2 8
5 2 7
31 7 7
2 46 7
2 7 6
19 5 6
7 31 6
2 49 5
2 10 4
2 14 4
2 5 4
2 18 4
5 19 4
12 15 4
15 34 4
34 15 4
2 50 4
50 2 4
13 46 4
46 13 4
10 2 3
14 2 3
17 15 3
17 5 3
15 17 3
18 2 3
26 27 3
19 13 3
2 33 3
15 12 3
2 36 3
36 2 3
7 12 3
49 2 3
3 4 2
4 3 2
6 2 2
7 5 2
5 17 2
24 23 2
27 26 2
27 2 2
5 30 2
30 5 2
19 7 2
15 32 2
32 15 2
33 2 2
2 37 2
35 26 2
26 35 2
12 7 2
5 38 2
7 39 2
39 18 2
13 40 2
40 13 2
13 41 2
41 13 2
43 2 2
47 48 2
44 47 2
49 46 2
45 2 2
1 2 1
2 3 1
3 5 1
5 6 1
2 6 1
6 7 1
2 8 1
8 2 1
2 9 1
9 7 1
10 6 1
2 11 1
11 7 1
5 12 1
12 5 1
15 14 1
14 16 1
16 17 1
14 15 1
5 18 1
18 5 1
19 20 1
20 21 1
21 22 1
22 21 1
21 2 1
2 24 1
23 24 1
23 25 1
25 26 1
19 28 1
28 15 1
13 15 1
15 13 1
18 29 1
29 5 1
19 31 1
31 19 1
33 12 1
15 31 1
7 32 1
32 2 1
7 35 1
37 2 1
36 5 1
7 19 1
12 19 1
2 28 1
28 2 1
37 7 1
38 5 1
38 29 1
15 29 1
15 39 1
39 15 1
7 36 1
36 18 1
18 36 1
36 7 1
7 13 1
13 42 1
42 43 1
2 43 1
2 44 1
44 45 1
45 44 1
44 46 1
46 47 1
48 44 1
48 49 1
46 44 1
47 2 1
13 27 1
2 27 1
27 45 1
2 45 1
49 36 1
