2 5 44
5 2 43
5 7 19
7 5 19
5 12 16
2 68 16
12 5 15
68 2 15
15 2 12
12 7 11
7 9 10
2 15 10
2 7 9
7 12 9
23 5 8
5 23 8
24 5 7
7 2 7
15 16 6
17 2 6
2 17 6
9 5 6
19 20 6
2 12 6
5 20 6
12 2 6
5 24 6
9 7 5
7 18 5
20 5 5
20 7 5
33 9 5
5 9 5
5 6 4
15 17 4
18 15 4
18 5 4
9 19 4
20 12 4
7 33 4
9 33 4
23 12 4
6 2 4
16 15 3
24 23 3
18 24 3
12 19 3
2 18 3
5 15 3
20 2 3
24 19 3
2 24 3
33 5 3
5 33 3
9 24 3
33 2 3
19 18 3
59 5 3
2 9 3
9 2 3
24 2 3
18 20 3
70 2 3
2 70 3
84 2 3
2 83 3
8 2 3
4 5 2
6 8 2
19 15 2
15 19 2
17 20 2
20 17 2
23 7 2
12 9 2
23 30 2
18 7 2
9 32 2
9 20 2
12 33 2
33 7 2
18 9 2
19 5 2
15 18 2
20 32 2
7 24 2
24 9 2
2 33 2
5 32 2
57 23 2
9 18 2
15 8 2
25 5 2
63 15 2
7 25 2
16 48 2
64 73 2
32 5 2
12 23 2
8 15 2
16 79 2
80 16 2
17 5 2
2 6 2
2 14 2
83 84 2
83 2 2
24 20 2
2 8 2
99 17 2
1 2 1
2 3 1
3 2 1
2 4 1
6 7 1
7 8 1
8 9 1
9 6 1
8 10 1
10 11 1
11 6 1
6 12 1
7 13 1
13 14 1
14 15 1
17 18 1
17 19 1
19 17 1
17 21 1
21 22 1
22 23 1
23 9 1
12 24 1
7 16 1
16 25 1
25 19 1
19 7 1
9 26 1
26 23 1
23 27 1
27 23 1
23 28 1
28 29 1
29 23 1
30 23 1
23 31 1
31 18 1
24 18 1
32 9 1
7 19 1
18 19 1
19 2 1
9 12 1
15 34 1
34 35 1
35 36 1
36 37 1
37 12 1
12 38 1
38 39 1
39 5 1
15 20 1
20 15 1
15 5 1
5 40 1
40 7 1
33 20 1
32 41 1
41 42 1
42 5 1
6 43 1
43 5 1
6 5 1
5 44 1
44 45 1
45 46 1
46 6 1
6 45 1
45 14 1
14 20 1
7 32 1
32 20 1
2 47 1
47 2 1
5 48 1
48 49 1
49 23 1
30 5 1
2 19 1
5 50 1
50 51 1
51 7 1
33 24 1
5 52 1
52 53 1
53 7 1
19 9 1
20 54 1
54 9 1
32 52 1
52 33 1
33 55 1
55 5 1
5 56 1
56 7 1
5 55 1
55 32 1
32 55 1
55 24 1
9 57 1
23 24 1
19 57 1
23 58 1
58 5 1
5 19 1
18 12 1
2 53 1
53 4 1
4 59 1
5 60 1
60 7 1
19 61 1
61 15 1
8 7 1
7 15 1
15 59 1
2 25 1
5 47 1
47 33 1
12 62 1
62 19 1
32 12 1
12 25 1
25 46 1
46 63 1
15 64 1
64 65 1
65 66 1
66 4 1
5 67 1
67 9 1
68 69 1
69 70 1
70 18 1
20 24 1
5 25 1
25 33 1
5 71 1
71 16 1
48 2 1
12 18 1
24 55 1
55 20 1
25 24 1
5 72 1
72 64 1
73 64 1
73 5 1
5 18 1
5 74 1
74 12 1
33 25 1
25 9 1
18 23 1
9 75 1
75 76 1
76 2 1
2 75 1
75 2 1
2 77 1
77 2 1
12 57 1
57 15 1
17 6 1
15 4 1
4 2 1
2 63 1
63 6 1
6 18 1
18 55 1
55 18 1
20 23 1
23 78 1
78 15 1
15 23 1
23 15 1
16 8 1
48 8 1
79 80 1
79 16 1
16 80 1
16 5 1
5 81 1
81 16 1
16 2 1
18 2 1
14 2 1
14 75 1
75 82 1
82 49 1
49 6 1
6 83 1
2 84 1
2 85 1
85 86 1
86 87 1
87 5 1
24 12 1
5 88 1
88 5 1
33 32 1
32 24 1
24 7 1
5 17 1
20 19 1
19 89 1
89 2 1
5 4 1
4 15 1
15 12 1
5 16 1
16 72 1
72 16 1
16 90 1
90 5 1
2 91 1
91 15 1
2 51 1
51 15 1
15 92 1
92 51 1
51 93 1
93 63 1
2 94 1
94 2 1
2 74 1
74 15 1
2 95 1
95 96 1
96 59 1
5 97 1
97 98 1
98 6 1
8 5 1
5 99 1
17 99 1
17 100 1
100 101 1
