3 18 27
18 3 24
5 2 17
10 3 15
18 37 14
37 18 13
2 5 12
3 10 11
14 3 10
3 14 9
3 49 7
19 20 6
49 3 6
7 8 5
8 7 5
18 19 5
20 18 5
18 20 5
20 19 5
29 3 5
37 3 5
16 7 4
7 16 4
3 37 4
10 8 4
10 45 4
8 5 3
3 29 3
34 35 3
35 34 3
2 18 3
18 10 3
19 18 3
8 10 3
14 10 3
2 3 2
3 2 2
10 7 2
2 8 2
8 14 2
18 29 2
16 10 2
7 5 2
18 5 2
37 38 2
35 39 2
45 10 2
45 14 2
10 14 2
3 20 2
1 2 1
2 4 1
4 2 1
3 4 1
4 3 1
3 5 1
5 6 1
6 7 1
8 9 1
9 10 1
10 11 1
11 10 1
10 12 1
12 10 1
5 13 1
13 8 1
7 2 1
8 2 1
2 10 1
3 8 1
3 15 1
15 3 1
3 16 1
16 3 1
3 17 1
17 3 1
3 21 1
21 22 1
22 23 1
23 18 1
18 24 1
24 3 1
3 25 1
25 26 1
26 27 1
27 25 1
25 18 1
20 24 1
24 28 1
28 18 1
3 30 1
30 3 1
3 31 1
31 3 1
3 32 1
32 20 1
20 10 1
10 5 1
5 33 1
33 16 1
16 5 1
5 16 1
10 16 1
16 8 1
2 7 1
5 3 1
18 34 1
34 36 1
36 3 1
38 37 1
18 35 1
39 40 1
40 39 1
39 18 1
19 41 1
41 42 1
42 41 1
41 43 1
43 3 1
3 34 1
34 10 1
3 11 1
11 18 1
20 44 1
44 18 1
8 45 1
45 8 1
14 46 1
46 10 1
14 8 1
2 47 1
47 48 1
48 3 1
20 3 1
3 19 1
19 3 1
49 50 1
50 49 1
49 51 1
51 8 1
7 10 1
8 16 1
16 37 1
38 18 1
18 21 1
21 18 1
18 52 1
52 3 1
3 53 1
53 37 1
37 19 1
20 35 1
39 45 1
45 16 1
10 54 1
54 2 1
2 55 1
55 56 1
56 57 1
57 11 1
11 57 1
57 3 1
37 34 1
34 37 1
3 35 1
34 58 1
58 34 1
35 16 1
16 18 1
18 55 1
55 18 1
10 59 1
59 20 1
20 38 1
38 20 1
19 10 1
