12 13 38
13 12 34
27 32 23
32 27 23
13 22 21
24 23 20
22 13 20
23 24 17
3 2 16
15 14 16
20 24 16
14 15 15
2 3 14
9 8 14
20 21 14
21 20 14
24 20 13
8 9 12
27 8 12
8 27 12
2 47 11
23 20 10
22 35 10
47 2 10
35 22 9
33 12 8
23 36 8
12 23 8
23 12 8
52 23 8
22 23 8
20 23 7
36 23 7
23 22 7
3 4 6
7 2 6
2 7 6
8 10 6
20 22 6
22 20 6
30 14 6
2 39 6
39 2 6
22 52 6
10 9 5
28 15 5
14 30 5
12 33 5
23 52 5
52 22 5
32 8 5
4 3 4
4 5 4
17 2 4
2 17 4
14 28 4
23 50 4
53 32 4
19 5 4
5 19 4
5 3 3
10 8 3
13 23 3
15 28 3
28 14 3
14 31 3
31 14 3
38 8 3
40 9 3
20 41 3
27 53 3
5 56 3
2 4 2
9 10 2
15 27 2
27 15 2
20 34 2
23 13 2
9 26 2
26 9 2
9 38 2
8 40 2
30 2 2
50 12 2
12 52 2
50 22 2
8 32 2
56 5 2
1 2 1
5 4 1
4 6 1
6 5 1
5 7 1
7 8 1
9 11 1
11 12 1
13 14 1
15 12 1
12 15 1
14 12 1
13 16 1
16 17 1
17 3 1
2 18 1
18 19 1
19 20 1
20 25 1
25 22 1
22 26 1
26 8 1
8 26 1
26 12 1
24 15 1
14 29 1
29 30 1
28 27 1
32 12 1
13 27 1
8 33 1
13 33 1
12 3 1
2 20 1
34 20 1
34 21 1
21 8 1
8 21 1
21 28 1
15 22 1
35 14 1
14 23 1
36 21 1
21 37 1
37 21 1
21 38 1
9 2 1
3 24 1
24 40 1
40 8 1
9 40 1
8 20 1
41 22 1
22 42 1
42 20 1
41 20 1
41 43 1
43 24 1
24 44 1
44 24 1
24 45 1
45 20 1
20 46 1
46 20 1
20 11 1
11 24 1
23 30 1
30 47 1
47 31 1
31 47 1
47 30 1
2 30 1
47 14 1
14 2 1
2 14 1
14 13 1
12 48 1
48 13 1
23 49 1
49 12 1
12 51 1
51 12 1
52 25 1
25 23 1
12 25 1
25 52 1
12 22 1
50 23 1
22 50 1
23 32 1
53 27 1
32 53 1
8 53 1
8 22 1
22 15 1
15 54 1
54 12 1
22 55 1
55 7 1
7 5 1
56 19 1
19 9 1
9 39 1
39 33 1
12 57 1
57 33 1
33 28 1
15 9 1
8 58 1
58 23 1
23 59 1
59 24 1
24 12 1
12 60 1
60 61 1
61 62 1
62 21 1
