2 12 71
12 2 68
6 12 36
12 6 33
2 8 31
2 3 29
8 2 28
3 2 27
2 50 25
8 4 24
50 2 24
13 17 22
4 8 21
17 13 20
4 57 15
57 4 15
3 8 12
4 2 11
6 7 10
17 22 10
8 3 9
2 4 8
7 6 8
22 17 8
43 13 7
13 43 7
23 17 6
28 6 6
17 23 5
6 28 5
59 13 5
17 45 5
45 17 5
7 12 4
17 18 4
20 17 4
12 34 4
55 56 4
22 2 4
2 6 4
6 2 4
12 7 3
13 3 3
18 17 3
17 20 3
2 27 3
34 2 3
34 12 3
13 45 3
47 8 3
51 2 3
56 55 3
13 59 3
12 17 3
7 3 2
3 13 2
2 15 2
15 2 2
19 17 2
17 19 2
17 2 2
27 2 2
2 28 2
7 28 2
28 7 2
2 17 2
17 12 2
2 34 2
12 37 2
37 12 2
12 38 2
38 12 2
8 13 2
45 13 2
8 47 2
55 4 2
8 45 2
3 17 2
3 50 2
17 3 2
12 68 2
12 22 2
8 6 2
27 6 2
3 6 2
56 4 2
43 6 2
1 2 1
4 5 1
5 4 1
4 6 1
3 4 1
8 9 1
9 4 1
4 10 1
10 7 1
7 11 1
11 12 1
4 7 1
7 8 1
2 14 1
14 2 1
2 16 1
16 17 1
18 19 1
19 20 1
17 21 1
21 17 1
17 24 1
24 25 1
25 2 1
12 26 1
26 13 1
28 29 1
29 30 1
30 7 1
12 31 1
31 12 1
12 32 1
32 12 1
2 33 1
33 2 1
12 35 1
35 2 1
12 36 1
36 12 1
12 39 1
39 12 1
12 40 1
40 41 1
41 42 1
42 8 1
8 43 1
13 44 1
44 13 1
45 3 1
3 43 1
43 3 1
8 46 1
46 47 1
8 48 1
48 12 1
2 49 1
49 2 1
50 51 1
2 52 1
52 2 1
2 53 1
53 54 1
54 22 1
17 55 1
56 11 1
11 55 1
4 55 1
4 58 1
58 59 1
59 57 1
57 8 1
8 60 1
60 61 1
61 8 1
4 62 1
62 8 1
2 63 1
63 2 1
45 2 1
3 11 1
11 64 1
64 2 1
50 65 1
65 2 1
50 17 1
6 66 1
66 67 1
67 12 1
68 6 1
6 69 1
69 6 1
12 70 1
70 12 1
22 43 1
43 59 1
43 71 1
71 59 1
13 72 1
72 73 1
73 13 1
13 2 1
27 23 1
17 74 1
74 17 1
12 4 1
4 75 1
75 76 1
76 4 1
4 60 1
60 3 1
3 45 1
45 8 1
8 77 1
77 2 1
13 78 1
78 2 1
6 3 1
6 27 1
2 59 1
59 8 1
6 4 1
4 3 1
8 56 1
2 78 1
78 43 1
6 43 1
43 12 1
17 43 1
2 79 1
79 3 1
3 79 1
79 2 1
2 80 1
80 56 1
2 13 1
17 6 1
6 70 1
70 3 1
12 27 1
6 17 1
45 4 1
4 12 1
12 3 1
3 51 1
2 51 1
68 12 1
2 22 1
12 81 1
81 11 1
11 82 1
82 50 1
50 8 1
17 48 1
48 17 1
17 83 1
83 17 1
22 84 1
84 8 1
17 85 1
