2 12 71
12 2 68
6 12 36
12 6 33
2 8 31
2 3 29
8 2 28
3 2 27
2 52 25
8 4 24
52 2 24
13 17 22
4 8 21
17 13 20
4 60 15
60 4 15
3 8 12
6 7 10
4 2 10
17 22 10
8 3 9
2 4 8
7 6 8
22 17 8
45 13 7
13 45 7
23 17 6
28 6 6
17 23 5
6 28 5
62 13 5
17 47 5
47 17 5
7 12 4
17 18 4
20 17 4
12 35 4
58 59 4
22 2 4
2 6 4
6 2 4
12 7 3
13 3 3
18 17 3
17 20 3
2 27 3
35 2 3
35 12 3
13 47 3
49 8 3
53 2 3
59 58 3
13 62 3
12 17 3
7 3 2
3 13 2
2 15 2
15 2 2
19 17 2
17 19 2
17 2 2
27 2 2
2 28 2
7 28 2
28 7 2
2 17 2
17 12 2
2 35 2
12 38 2
38 12 2
12 39 2
8 13 2
47 13 2
8 49 2
58 4 2
8 47 2
3 17 2
3 52 2
17 3 2
12 71 2
12 22 2
8 6 2
27 6 2
3 6 2
59 4 2
45 6 2
1 2 1
4 5 1
5 4 1
4 6 1
3 4 1
8 9 1
9 4 1
4 10 1
10 7 1
7 11 1
11 12 1
4 7 1
7 8 1
2 14 1
14 2 1
2 16 1
16 17 1
18 19 1
19 20 1
17 21 1
21 17 1
17 24 1
24 25 1
25 2 1
12 26 1
26 13 1
28 29 1
29 30 1
30 7 1
12 31 1
31 12 1
12 32 1
32 12 1
12 33 1
33 12 1
2 34 1
34 2 1
12 36 1
36 2 1
12 37 1
37 12 1
39 12 1
12 40 1
40 12 1
39 41 1
41 12 1
12 42 1
42 43 1
43 44 1
44 8 1
8 45 1
13 46 1
46 13 1
47 3 1
3 45 1
45 3 1
8 48 1
48 49 1
8 50 1
50 12 1
2 51 1
51 2 1
52 53 1
2 54 1
54 2 1
2 55 1
55 56 1
56 57 1
57 22 1
17 58 1
59 11 1
11 58 1
4 58 1
4 61 1
61 62 1
62 60 1
60 8 1
8 63 1
63 64 1
64 8 1
4 65 1
65 8 1
2 66 1
66 2 1
47 2 1
3 11 1
11 67 1
67 2 1
52 68 1
68 2 1
52 17 1
6 69 1
69 70 1
70 12 1
71 6 1
6 72 1
72 6 1
12 73 1
73 12 1
22 45 1
45 62 1
45 74 1
74 62 1
13 75 1
75 76 1
76 13 1
13 2 1
27 23 1
17 77 1
77 17 1
12 4 1
4 78 1
78 79 1
79 4 1
4 63 1
63 3 1
3 47 1
47 8 1
8 80 1
80 2 1
13 81 1
81 2 1
6 3 1
6 27 1
2 62 1
62 8 1
6 4 1
4 3 1
8 59 1
2 81 1
81 45 1
6 45 1
45 12 1
17 45 1
2 82 1
82 3 1
3 82 1
82 2 1
2 83 1
83 59 1
4 84 1
84 2 1
2 13 1
17 6 1
6 73 1
73 3 1
12 27 1
6 17 1
47 4 1
4 12 1
12 3 1
3 53 1
2 53 1
71 12 1
2 22 1
12 85 1
85 11 1
11 86 1
86 52 1
52 8 1
17 50 1
50 17 1
17 87 1
87 17 1
22 88 1
88 8 1
17 89 1
