5 9 49
9 5 47
7 9 37
9 7 34
25 5 32
5 25 31
9 13 27
13 9 20
13 5 16
5 13 15
6 5 14
5 6 13
15 9 12
5 18 12
18 5 12
13 7 11
7 13 11
14 5 9
8 14 8
9 15 8
14 6 8
14 8 7
6 9 6
17 7 6
7 17 6
19 14 6
5 14 6
9 6 5
6 14 5
14 15 5
9 36 5
36 9 5
15 14 5
14 19 4
5 22 4
22 5 4
5 28 4
15 8 4
6 15 4
15 5 4
8 15 3
5 20 3
20 5 3
5 7 3
28 5 3
28 25 3
5 15 3
14 10 3
15 6 3
7 6 2
6 8 2
10 7 2
9 8 2
18 7 2
7 18 2
18 9 2
9 18 2
18 13 2
13 19 2
8 9 2
19 15 2
15 19 2
14 7 2
8 13 2
13 14 2
21 9 2
7 5 2
23 7 2
9 23 2
25 28 2
8 5 2
10 9 2
31 6 2
6 32 2
32 15 2
9 14 2
5 10 2
10 5 2
6 31 2
1 2 1
2 3 1
3 4 1
4 5 1
6 7 1
8 6 1
9 10 1
9 11 1
11 6 1
5 12 1
12 9 1
13 16 1
16 9 1
13 17 1
17 5 1
13 18 1
19 8 1
9 19 1
13 8 1
5 21 1
21 7 1
7 21 1
9 21 1
21 13 1
13 21 1
7 23 1
23 9 1
7 24 1
24 14 1
5 26 1
26 27 1
27 26 1
26 9 1
9 28 1
5 8 1
5 29 1
29 15 1
15 29 1
29 9 1
9 29 1
29 30 1
30 6 1
7 14 1
15 31 1
13 6 1
6 13 1
13 10 1
6 18 1
6 10 1
10 8 1
8 33 1
33 5 1
9 34 1
34 14 1
10 6 1
9 35 1
35 9 1
9 37 1
37 15 1
9 38 1
38 15 1
9 39 1
39 40 1
40 9 1
15 41 1
41 15 1
31 5 1
5 31 1
31 15 1
5 42 1
42 14 1
13 15 1
14 13 1
14 42 1
42 25 1
25 6 1
28 7 1
9 43 1
43 14 1
13 28 1
28 9 1
5 44 1
44 14 1
7 15 1
15 25 1
25 31 1
31 7 1
7 45 1
45 9 1
