4 3 42
3 4 41
9 4 35
4 9 34
24 9 19
9 24 18
4 7 10
7 4 9
3 23 9
9 3 9
15 16 8
4 18 8
23 3 8
20 9 8
9 20 8
12 9 7
9 12 7
18 4 6
3 9 6
2 4 5
16 17 5
17 15 4
16 15 4
3 20 4
3 24 4
28 9 4
4 2 4
4 6 3
8 9 3
11 9 3
7 3 3
3 21 3
20 4 3
24 3 3
9 28 3
30 9 3
2 9 3
6 4 2
7 8 2
9 8 2
7 10 2
10 7 2
11 12 2
15 4 2
15 7 2
9 11 2
15 17 2
17 16 2
16 20 2
20 15 2
20 17 2
17 3 2
20 3 2
21 3 2
17 22 2
18 9 2
9 29 2
9 30 2
9 33 2
9 34 2
34 9 2
9 35 2
35 9 2
4 39 2
39 4 2
9 2 2
1 2 1
2 3 1
3 2 1
3 5 1
5 4 1
6 7 1
8 7 1
7 11 1
12 13 1
13 14 1
14 15 1
4 16 1
4 8 1
8 15 1
7 15 1
7 18 1
18 11 1
11 18 1
18 12 1
12 15 1
15 19 1
19 11 1
12 11 1
18 16 1
16 7 1
3 8 1
8 3 1
3 15 1
17 20 1
20 21 1
21 15 1
15 20 1
21 20 1
22 17 1
22 4 1
4 22 1
22 7 1
9 7 1
3 22 1
22 3 1
3 17 1
23 20 1
9 18 1
9 25 1
25 18 1
18 26 1
26 24 1
4 24 1
24 7 1
7 22 1
22 15 1
15 3 1
3 27 1
27 9 1
29 9 1
29 28 1
3 30 1
9 31 1
31 32 1
32 9 1
33 9 1
33 32 1
32 35 1
35 36 1
36 4 1
4 37 1
37 4 1
4 38 1
38 4 1
20 2 1
4 20 1
