9 1 48
1 9 48
1 32 10
1 39 10
5 1 9
32 1 9
39 1 9
1 37 8
1 5 6
5 9 5
31 1 5
37 1 5
7 5 4
9 5 4
25 1 4
30 5 4
1 31 4
1 25 3
29 1 3
1 29 3
30 1 3
1 30 3
5 30 3
9 39 3
1 4 2
4 1 2
6 5 2
1 6 2
1 7 2
37 9 2
40 41 2
41 40 2
39 9 2
46 1 2
47 48 2
48 47 2
1 2 1
2 3 1
3 1 1
5 6 1
1 8 1
8 9 1
9 10 1
10 1 1
9 7 1
5 11 1
11 12 1
12 9 1
9 13 1
13 14 1
14 15 1
15 14 1
14 9 1
9 16 1
16 1 1
1 17 1
17 18 1
18 9 1
9 19 1
19 6 1
6 20 1
20 21 1
21 22 1
22 23 1
23 24 1
24 25 1
25 17 1
17 26 1
26 25 1
1 24 1
24 1 1
7 27 1
27 7 1
5 7 1
5 28 1
28 17 1
17 5 1
6 29 1
29 5 1
1 28 1
28 9 1
9 30 1
5 31 1
32 33 1
33 34 1
34 1 1
1 34 1
34 35 1
35 1 1
1 36 1
36 9 1
9 37 1
37 38 1
38 1 1
39 40 1
40 42 1
42 41 1
41 43 1
43 9 1
39 44 1
44 45 1
45 1 1
9 46 1
9 47 1
47 49 1
49 9 1
9 50 1
50 1 1
1 51 1
51 52 1
52 37 1
37 53 1
53 1 1
37 54 1
54 46 1
1 55 1
55 56 1
56 57 1
57 58 1
58 59 1
59 43 1
43 60 1
60 1 1
1 61 1
61 62 1
62 63 1
63 55 1
55 64 1
64 55 1
55 65 1
65 51 1
51 66 1
66 67 1
