3 16 31
16 3 30
16 18 25
18 16 23
9 3 20
41 3 20
3 41 19
15 3 16
3 4 15
3 6 15
3 9 15
18 3 14
3 18 13
6 3 12
4 41 10
3 15 9
4 3 7
14 3 7
29 3 7
3 29 7
41 4 7
3 14 6
16 6 6
29 27 5
27 29 5
5 3 4
14 11 4
9 16 4
10 3 4
3 10 4
27 3 4
3 32 4
3 37 4
37 3 4
41 16 4
4 15 4
3 5 3
6 9 3
6 10 3
15 16 3
18 9 3
6 18 3
20 3 3
32 3 3
41 15 3
41 51 3
51 3 3
3 51 3
51 41 3
3 27 3
27 15 3
15 27 3
59 3 3
2 3 2
11 6 2
10 6 2
6 11 2
11 12 2
12 13 2
6 14 2
11 14 2
11 3 2
18 6 2
6 16 2
16 15 2
3 20 2
16 9 2
32 33 2
33 16 2
18 15 2
15 39 2
39 15 2
41 42 2
42 41 2
3 43 2
43 16 2
16 43 2
43 3 2
16 41 2
16 4 2
4 18 2
18 4 2
4 55 2
55 4 2
3 23 2
23 3 2
3 59 2
15 4 2
1 2 1
4 2 1
4 5 1
3 7 1
7 8 1
8 3 1
10 11 1
13 6 1
13 9 1
6 15 1
3 17 1
17 15 1
15 14 1
15 9 1
16 11 1
9 19 1
19 16 1
9 20 1
9 15 1
15 21 1
21 15 1
15 6 1
6 22 1
22 14 1
14 23 1
23 16 1
16 24 1
24 11 1
11 9 1
3 22 1
22 3 1
3 25 1
25 16 1
6 26 1
26 6 1
9 27 1
27 18 1
16 28 1
28 6 1
6 29 1
3 30 1
30 3 1
29 31 1
31 18 1
18 27 1
27 32 1
32 15 1
15 30 1
30 32 1
33 27 1
3 33 1
16 32 1
32 16 1
14 34 1
34 6 1
6 35 1
35 36 1
36 3 1
3 36 1
36 9 1
3 38 1
38 3 1
3 39 1
39 18 1
16 40 1
40 16 1
41 9 1
43 23 1
23 43 1
43 44 1
44 42 1
42 45 1
45 42 1
42 43 1
43 41 1
41 43 1
41 14 1
14 15 1
15 41 1
18 46 1
46 15 1
16 47 1
47 16 1
3 48 1
48 41 1
15 49 1
49 15 1
15 18 1
3 50 1
50 41 1
3 2 1
2 51 1
3 52 1
52 15 1
41 18 1
16 53 1
53 39 1
39 4 1
4 54 1
54 27 1
27 41 1
4 56 1
56 41 1
3 57 1
57 16 1
16 14 1
51 58 1
58 57 1
57 58 1
58 16 1
4 59 1
4 60 1
60 41 1
