18 6 59
6 18 52
6 37 36
37 6 35
5 6 14
30 27 14
27 30 13
6 5 12
41 18 7
17 1 6
18 41 6
56 37 6
79 18 6
30 31 5
31 30 5
27 18 5
1 34 5
18 79 5
18 27 4
34 1 4
65 34 4
68 37 4
37 1 4
34 30 4
30 34 4
6 17 3
17 6 3
1 17 3
37 18 3
41 6 3
30 6 3
6 30 3
37 56 3
6 56 3
30 56 3
56 30 3
18 59 3
59 18 3
37 34 3
20 1 3
37 81 3
27 1 3
1 37 3
1 87 3
87 1 3
6 13 2
5 14 2
17 22 2
22 23 2
23 17 2
6 29 2
36 18 2
6 41 2
42 18 2
6 54 2
54 18 2
6 27 2
18 30 2
1 20 2
34 20 2
20 34 2
34 65 2
65 1 2
34 68 2
18 10 2
79 31 2
81 37 2
27 83 2
83 27 2
34 37 2
87 6 2
90 27 2
1 30 2
1 2 1
2 3 1
3 4 1
4 5 1
6 7 1
7 5 1
5 8 1
8 9 1
9 6 1
6 9 1
9 10 1
10 11 1
11 12 1
12 6 1
13 5 1
14 5 1
14 15 1
15 5 1
6 16 1
16 6 1
13 19 1
19 20 1
20 21 1
21 17 1
1 24 1
24 17 1
1 25 1
25 17 1
1 26 1
26 27 1
27 28 1
28 6 1
29 30 1
30 32 1
32 33 1
33 34 1
34 35 1
35 34 1
34 36 1
6 38 1
38 6 1
37 39 1
39 40 1
40 37 1
18 42 1
6 42 1
18 43 1
43 34 1
34 43 1
43 44 1
44 45 1
45 34 1
34 6 1
6 46 1
46 41 1
6 47 1
47 6 1
6 48 1
48 49 1
49 18 1
37 50 1
50 6 1
37 51 1
51 37 1
29 37 1
37 52 1
52 19 1
19 1 1
1 53 1
53 1 1
1 6 1
54 6 1
18 54 1
27 55 1
55 30 1
30 18 1
18 37 1
18 56 1
56 6 1
6 57 1
57 30 1
30 58 1
58 18 1
18 60 1
60 61 1
61 37 1
34 62 1
62 35 1
35 63 1
63 34 1
34 64 1
64 1 1
34 66 1
66 20 1
20 67 1
67 65 1
65 56 1
56 65 1
1 69 1
69 27 1
27 70 1
70 71 1
71 72 1
72 73 1
73 6 1
6 73 1
73 74 1
74 27 1
27 74 1
74 18 1
30 65 1
34 18 1
41 75 1
75 41 1
18 76 1
76 77 1
77 41 1
18 77 1
77 18 1
37 78 1
78 27 1
27 6 1
27 79 1
10 79 1
31 79 1
31 18 1
18 80 1
80 18 1
10 37 1
81 82 1
82 68 1
37 54 1
54 27 1
1 84 1
84 85 1
85 37 1
37 65 1
37 68 1
68 20 1
20 86 1
86 68 1
37 87 1
6 87 1
6 34 1
34 88 1
88 89 1
89 88 1
88 27 1
27 34 1
1 65 1
1 90 1
30 1 1
20 91 1
91 30 1
30 20 1
30 91 1
91 92 1
92 27 1
1 27 1
27 90 1
27 31 1
31 88 1
88 20 1
1 36 1
