37 7 28
7 37 27
9 7 14
7 9 14
9 37 12
9 24 11
37 9 11
9 11 10
24 9 10
11 9 8
7 32 7
21 9 7
32 7 6
9 21 6
57 9 6
9 57 6
7 62 6
7 28 5
74 7 5
7 74 5
9 27 4
15 9 4
7 54 4
62 7 4
9 15 3
28 7 3
7 15 3
54 7 3
37 62 3
11 12 2
11 13 2
16 17 2
17 9 2
7 25 2
27 9 2
29 7 2
10 17 2
9 18 2
16 7 2
55 7 2
62 37 2
78 9 2
9 78 2
10 62 2
85 7 2
1 2 1
2 3 1
3 4 1
4 5 1
5 6 1
6 7 1
7 8 1
8 9 1
9 10 1
10 9 1
12 11 1
12 9 1
13 14 1
14 15 1
15 16 1
15 18 1
18 7 1
7 19 1
19 7 1
7 20 1
20 7 1
7 21 1
21 22 1
22 17 1
17 23 1
23 9 1
25 7 1
25 26 1
26 7 1
27 24 1
24 17 1
17 11 1
11 7 1
28 29 1
28 30 1
30 31 1
31 32 1
32 33 1
33 34 1
34 7 1
32 35 1
35 10 1
7 36 1
36 7 1
15 17 1
17 37 1
37 38 1
38 37 1
37 39 1
39 37 1
7 40 1
40 41 1
41 37 1
37 36 1
36 37 1
9 42 1
42 9 1
18 9 1
27 7 1
9 43 1
43 9 1
9 44 1
44 22 1
22 45 1
45 18 1
18 11 1
11 46 1
46 37 1
37 47 1
47 9 1
24 37 1
7 45 1
45 9 1
37 11 1
15 11 1
11 48 1
48 15 1
11 49 1
49 21 1
21 11 1
9 50 1
50 17 1
17 51 1
51 50 1
50 52 1
52 7 1
7 53 1
53 16 1
17 16 1
7 55 1
54 55 1
7 56 1
56 57 1
57 10 1
10 58 1
58 59 1
59 60 1
60 21 1
21 61 1
61 21 1
9 62 1
62 63 1
63 37 1
62 9 1
18 64 1
64 62 1
62 15 1
15 62 1
62 65 1
65 9 1
9 66 1
66 9 1
9 28 1
28 9 1
9 67 1
67 9 1
37 68 1
68 7 1
37 69 1
69 70 1
70 37 1
37 10 1
10 15 1
9 17 1
17 71 1
71 7 1
7 71 1
71 72 1
72 17 1
17 15 1
15 7 1
7 73 1
73 74 1
9 75 1
75 7 1
74 48 1
48 76 1
76 77 1
77 9 1
9 36 1
36 78 1
78 10 1
10 22 1
22 79 1
79 80 1
80 81 1
81 82 1
82 7 1
7 22 1
22 9 1
13 7 1
15 12 1
12 15 1
15 83 1
83 79 1
79 17 1
17 10 1
17 7 1
7 10 1
62 10 1
62 84 1
84 85 1
7 86 1
86 7 1
62 85 1
62 87 1
87 62 1
62 88 1
88 13 1
13 89 1
89 50 1
50 29 1
7 16 1
