10 5 21
5 10 20
9 10 14
10 9 14
8 12 12
12 8 9
7 8 8
12 9 8
12 22 8
8 7 7
9 12 6
22 12 6
2 3 5
7 5 5
8 9 5
9 8 5
3 2 4
3 4 4
5 7 4
4 3 4
8 13 4
13 8 4
17 18 4
18 17 4
17 10 4
10 17 4
22 8 4
9 23 4
17 9 4
3 7 3
9 17 3
5 9 3
9 16 3
16 9 3
30 12 3
12 30 3
4 2 2
6 7 2
7 6 2
2 4 2
13 12 2
12 13 2
9 14 2
14 12 2
10 16 2
16 17 2
19 12 2
12 20 2
20 12 2
8 22 2
23 9 2
18 10 2
13 17 2
12 23 2
23 12 2
1 2 1
2 5 1
5 6 1
6 5 1
5 2 1
4 5 1
5 4 1
7 3 1
5 3 1
3 5 1
5 8 1
8 3 1
8 10 1
5 11 1
11 12 1
14 9 1
12 14 1
10 15 1
15 10 1
10 19 1
12 19 1
12 21 1
21 22 1
8 5 1
23 16 1
16 18 1
9 18 1
17 5 1
9 24 1
24 10 1
9 25 1
25 20 1
20 13 1
13 26 1
26 13 1
17 13 1
17 27 1
27 28 1
28 18 1
18 8 1
22 9 1
9 11 1
11 29 1
29 18 1
18 9 1
9 13 1
13 30 1
30 17 1
17 12 1
12 31 1
31 9 1
23 14 1
14 8 1
12 10 1
9 5 1
5 12 1
12 5 1
10 32 1
32 10 1
