7 2 67
2 7 66
6 2 58
2 6 57
10 2 32
7 10 30
2 10 30
10 7 26
2 4 22
4 2 20
8 7 12
7 8 7
7 9 5
9 7 5
2 14 5
2 8 4
8 2 4
10 14 4
14 2 4
14 10 4
6 8 4
8 6 4
56 57 4
57 56 4
2 50 3
57 2 3
2 57 3
6 7 2
10 8 2
4 7 2
19 2 2
2 21 2
21 2 2
29 9 2
9 2 2
7 6 2
4 50 2
50 2 2
50 4 2
2 56 2
1 2 1
2 3 1
3 2 1
4 5 1
5 6 1
10 11 1
11 12 1
12 11 1
11 7 1
7 13 1
13 10 1
10 9 1
9 10 1
14 15 1
15 16 1
16 6 1
2 17 1
17 6 1
2 18 1
18 6 1
7 19 1
2 20 1
20 2 1
2 22 1
22 2 1
2 23 1
23 24 1
24 25 1
25 24 1
24 26 1
26 27 1
27 6 1
6 28 1
28 2 1
2 29 1
9 29 1
2 9 1
6 30 1
30 10 1
6 31 1
31 6 1
6 9 1
9 6 1
7 32 1
32 2 1
10 33 1
33 10 1
10 34 1
34 7 1
10 35 1
35 10 1
2 36 1
36 2 1
4 37 1
37 38 1
38 39 1
39 40 1
40 39 1
39 29 1
29 41 1
41 42 1
42 43 1
43 44 1
44 45 1
45 46 1
46 6 1
7 47 1
47 4 1
2 48 1
48 7 1
4 49 1
49 4 1
50 7 1
7 50 1
6 51 1
51 4 1
2 52 1
52 8 1
8 50 1
50 53 1
53 50 1
4 54 1
54 8 1
6 4 1
4 55 1
55 8 1
7 4 1
50 19 1
50 8 1
57 8 1
8 57 1
56 2 1
56 58 1
58 2 1
