39 35 24
35 39 23
17 34 16
35 17 16
34 17 14
17 35 12
37 11 11
36 11 9
37 43 9
11 37 9
46 37 8
11 36 7
43 37 7
37 46 7
17 39 6
34 35 6
60 47 6
5 6 5
6 5 5
18 17 5
17 18 5
11 40 5
39 17 5
69 6 5
5 69 5
69 5 5
46 36 5
17 3 4
17 36 4
35 34 4
40 11 4
63 29 4
43 64 4
64 43 4
36 46 4
4 15 3
5 3 3
3 5 3
3 17 3
5 17 3
20 21 3
23 25 3
11 35 3
22 39 3
40 37 3
37 40 3
11 43 3
39 37 3
43 35 3
50 51 3
51 50 3
47 60 3
29 63 3
4 37 3
11 46 3
6 69 3
43 46 3
46 43 3
17 5 3
5 7 2
10 11 2
12 13 2
14 10 2
11 14 2
7 11 2
15 4 2
3 7 2
21 20 2
23 24 2
24 23 2
25 23 2
28 29 2
17 37 2
37 17 2
35 11 2
39 22 2
40 36 2
36 40 2
37 42 2
42 37 2
40 39 2
44 21 2
34 39 2
37 36 2
34 37 2
57 58 2
37 4 2
4 11 2
46 11 2
37 69 2
4 12 2
10 13 2
72 69 2
74 37 2
35 46 2
46 35 2
37 39 2
35 6 2
81 17 2
17 81 2
53 70 2
11 25 2
1 2 1
2 3 1
3 4 1
4 5 1
7 8 1
8 4 1
4 9 1
9 10 1
11 12 1
13 4 1
4 14 1
14 4 1
15 16 1
16 4 1
4 7 1
7 5 1
6 3 1
3 13 1
13 3 1
17 7 1
11 10 1
10 17 1
3 15 1
15 11 1
11 3 1
11 7 1
7 14 1
14 6 1
3 11 1
11 18 1
18 19 1
19 20 1
21 22 1
22 23 1
25 26 1
26 25 1
25 27 1
27 28 1
29 28 1
29 26 1
26 30 1
30 31 1
31 32 1
32 31 1
31 33 1
33 17 1
36 35 1
34 11 1
36 34 1
34 38 1
38 35 1
35 22 1
22 34 1
36 37 1
36 41 1
41 17 1
17 22 1
39 40 1
39 11 1
43 44 1
21 44 1
44 45 1
45 46 1
46 44 1
44 47 1
47 44 1
21 34 1
39 34 1
43 11 1
35 43 1
39 48 1
48 49 1
49 50 1
50 49 1
49 29 1
29 35 1
43 52 1
52 21 1
21 17 1
17 53 1
53 39 1
39 54 1
54 21 1
21 55 1
55 47 1
47 46 1
46 47 1
47 33 1
33 46 1
36 43 1
43 17 1
43 29 1
29 39 1
39 3 1
7 34 1
35 12 1
13 35 1
37 14 1
14 11 1
10 56 1
56 52 1
52 57 1
58 57 1
58 59 1
59 57 1
57 59 1
59 60 1
47 61 1
61 60 1
47 20 1
20 57 1
57 62 1
62 63 1
29 17 1
35 42 1
42 43 1
43 65 1
65 17 1
35 36 1
36 17 1
17 66 1
66 4 1
37 67 1
67 68 1
68 67 1
67 4 1
11 34 1
6 4 1
12 4 1
12 37 1
69 3 1
3 46 1
36 47 1
47 25 1
25 47 1
47 70 1
70 21 1
21 56 1
56 37 1
37 71 1
71 37 1
37 56 1
56 10 1
13 10 1
13 5 1
6 12 1
12 72 1
69 72 1
6 72 1
72 5 1
5 73 1
73 65 1
65 29 1
29 3 1
3 72 1
72 17 1
35 37 1
11 60 1
47 52 1
52 37 1
17 74 1
37 74 1
37 5 1
7 75 1
75 2 1
2 5 1
5 75 1
75 47 1
47 13 1
13 37 1
37 50 1
50 35 1
35 76 1
76 21 1
21 25 1
25 39 1
17 77 1
77 4 1
4 43 1
43 47 1
47 37 1
37 60 1
60 43 1
43 36 1
39 43 1
43 78 1
78 43 1
43 33 1
33 39 1
5 43 1
39 5 1
5 35 1
6 37 1
46 79 1
79 60 1
60 80 1
80 81 1
81 82 1
82 17 1
5 11 1
11 4 1
4 17 1
17 4 1
11 5 1
5 53 1
70 11 1
25 11 1
25 42 1
42 53 1
70 83 1
83 39 1
39 83 1
