9 6 118
6 9 108
21 9 54
9 21 47
6 21 40
21 6 37
17 6 23
6 17 19
9 17 13
6 13 12
17 9 12
13 6 11
13 21 7
21 13 6
13 9 4
9 13 4
6 16 4
21 17 4
3 4 3
5 6 3
6 5 3
14 15 3
15 14 3
25 21 3
4 3 2
6 12 2
20 13 2
21 25 2
6 27 2
6 38 2
16 9 2
6 42 2
42 6 2
16 21 2
38 9 2
64 9 2
1 2 1
2 3 1
3 5 1
5 7 1
7 5 1
5 3 1
4 8 1
8 4 1
4 6 1
6 10 1
10 6 1
6 11 1
11 6 1
12 6 1
12 9 1
13 14 1
14 13 1
16 17 1
17 13 1
9 18 1
18 19 1
19 20 1
13 22 1
22 23 1
23 9 1
16 22 1
22 13 1
6 24 1
24 9 1
13 25 1
6 26 1
26 9 1
27 9 1
6 28 1
28 13 1
21 29 1
29 9 1
6 30 1
30 31 1
31 32 1
32 9 1
9 33 1
33 34 1
34 17 1
17 34 1
34 6 1
9 35 1
35 6 1
21 36 1
36 37 1
37 6 1
38 6 1
9 39 1
39 21 1
21 40 1
40 21 1
9 41 1
41 6 1
17 21 1
9 43 1
43 21 1
6 44 1
44 45 1
45 46 1
46 21 1
9 16 1
9 47 1
47 9 1
9 22 1
22 21 1
6 48 1
48 9 1
17 38 1
38 21 1
6 49 1
49 17 1
27 6 1
9 50 1
50 9 1
6 51 1
51 52 1
52 53 1
53 16 1
21 54 1
54 20 1
13 55 1
55 21 1
13 56 1
56 57 1
57 58 1
58 21 1
21 59 1
59 9 1
6 60 1
60 9 1
9 61 1
61 62 1
62 6 1
9 63 1
63 38 1
13 64 1
9 65 1
65 9 1
9 64 1
9 66 1
