8 9 40
9 8 39
8 13 33
23 7 30
7 23 30
13 8 24
13 7 23
9 17 21
17 9 19
17 8 16
9 4 15
7 13 15
8 17 15
13 36 13
4 9 12
5 13 12
11 13 12
13 5 11
13 4 10
7 8 10
13 17 10
36 13 10
13 12 9
8 7 9
4 5 8
4 13 8
17 12 8
22 23 8
13 11 8
4 17 8
17 13 8
12 13 7
7 11 7
17 4 7
5 4 6
12 9 6
17 11 6
23 22 6
7 17 6
4 8 5
12 17 5
11 8 5
7 22 5
11 7 5
17 24 5
8 11 5
7 39 5
8 12 4
12 8 4
7 9 4
11 17 4
11 5 4
24 17 4
17 7 4
12 11 4
39 7 4
17 47 4
47 17 4
4 7 3
7 4 3
5 8 3
9 13 3
7 5 3
22 7 3
7 12 3
37 13 3
10 7 3
7 10 3
9 7 3
13 9 3
9 12 3
8 4 2
11 12 2
9 5 2
5 17 2
5 7 2
22 20 2
20 22 2
23 21 2
21 7 2
12 5 2
12 7 2
8 34 2
21 8 2
39 40 2
40 7 2
13 37 2
17 23 2
9 47 2
47 9 2
5 9 2
1 2 1
2 3 1
3 4 1
4 6 1
6 4 1
4 10 1
10 11 1
12 10 1
10 4 1
8 14 1
14 8 1
8 15 1
15 16 1
16 10 1
10 5 1
17 18 1
18 17 1
12 19 1
19 7 1
9 20 1
20 7 1
7 20 1
20 21 1
21 22 1
21 23 1
7 21 1
5 12 1
24 8 1
17 25 1
25 17 1
17 26 1
26 17 1
17 27 1
27 17 1
17 28 1
28 17 1
17 29 1
29 17 1
17 30 1
30 31 1
31 13 1
8 32 1
32 33 1
33 9 1
34 8 1
34 21 1
13 35 1
35 13 1
36 37 1
36 12 1
23 8 1
5 36 1
8 38 1
38 39 1
7 37 1
37 36 1
36 8 1
36 7 1
22 13 1
11 37 1
37 12 1
36 11 1
11 4 1
4 24 1
24 13 1
8 10 1
10 41 1
41 10 1
10 8 1
13 42 1
42 11 1
11 42 1
42 17 1
17 41 1
41 11 1
5 11 1
23 43 1
43 44 1
44 8 1
9 45 1
45 46 1
46 21 1
21 13 1
13 21 1
23 17 1
5 48 1
48 9 1
