13 10 36
10 13 34
20 30 29
30 20 27
13 22 24
22 20 24
25 13 24
13 25 23
21 22 22
22 13 20
22 23 20
20 22 19
10 25 18
25 10 17
22 21 16
23 22 14
25 22 14
22 26 14
22 25 12
26 22 11
13 21 10
13 23 10
26 13 10
24 25 10
20 13 9
25 24 9
12 13 8
23 13 8
13 20 7
29 30 7
20 25 7
13 12 6
21 13 6
20 44 6
30 29 6
10 22 5
25 26 5
26 25 5
20 26 5
26 21 5
25 20 5
23 26 5
41 22 5
22 10 5
10 23 5
13 7 4
23 10 4
23 20 4
25 23 4
13 26 4
7 25 4
22 42 4
21 10 4
7 22 3
20 21 3
23 25 3
20 28 3
26 20 3
26 23 3
21 26 3
23 21 3
25 15 3
15 25 3
25 7 3
42 22 3
22 7 3
44 43 3
43 20 3
22 41 3
6 9 2
9 6 2
15 1 2
10 24 2
17 20 2
21 25 2
21 27 2
21 20 2
28 29 2
30 31 2
29 20 2
23 17 2
25 21 2
22 17 2
18 15 2
7 13 2
25 40 2
40 25 2
20 43 2
44 20 2
44 29 2
48 47 2
10 20 2
10 21 2
17 10 2
1 2 1
2 3 1
3 4 1
4 5 1
5 6 1
6 7 1
7 6 1
6 8 1
8 6 1
6 10 1
10 11 1
11 6 1
6 12 1
13 6 1
6 13 1
13 14 1
14 1 1
1 14 1
14 15 1
1 15 1
1 13 1
13 16 1
16 14 1
14 17 1
17 14 1
14 18 1
18 19 1
19 20 1
7 12 1
20 10 1
24 4 1
4 24 1
24 17 1
27 23 1
13 17 1
28 20 1
31 20 1
20 31 1
31 29 1
31 21 1
17 22 1
20 17 1
17 26 1
25 32 1
32 24 1
17 13 1
17 21 1
20 33 1
33 13 1
22 24 1
24 13 1
24 34 1
34 18 1
15 13 1
13 18 1
15 18 1
18 17 1
17 35 1
35 36 1
36 37 1
37 22 1
23 38 1
38 23 1
26 38 1
38 13 1
23 7 1
23 39 1
39 13 1
27 25 1
20 15 1
15 20 1
22 15 1
15 22 1
21 23 1
22 30 1
7 21 1
21 41 1
42 41 1
41 23 1
23 41 1
13 41 1
43 44 1
44 45 1
45 20 1
43 22 1
41 13 1
29 44 1
30 44 1
44 30 1
29 42 1
42 23 1
26 41 1
41 46 1
46 22 1
22 47 1
47 48 1
47 15 1
15 26 1
20 49 1
49 20 1
10 26 1
30 25 1
30 22 1
25 50 1
50 51 1
51 22 1
22 51 1
51 50 1
50 48 1
48 52 1
52 48 1
47 51 1
51 7 1
7 20 1
20 11 1
11 22 1
21 17 1
