14 23 43
23 14 42
38 1 24
1 38 23
14 20 20
20 14 18
1 4 16
4 1 16
7 1 15
14 7 13
1 7 12
10 1 11
23 1 11
7 14 11
1 10 10
1 23 10
29 14 9
13 14 8
20 1 8
14 13 7
14 29 7
34 7 7
14 26 6
7 34 6
1 20 6
49 1 6
14 12 5
12 14 5
26 14 5
36 14 5
14 36 5
1 49 5
26 1 4
1 29 4
1 34 4
23 7 4
7 8 3
11 10 3
21 14 3
1 26 3
31 14 3
34 14 3
1 11 3
1 51 3
51 1 3
8 7 2
10 11 2
12 13 2
14 17 2
17 14 2
25 14 2
14 1 2
1 14 2
14 31 2
26 33 2
33 26 2
14 34 2
29 1 2
11 1 2
34 1 2
1 2 1
2 1 1
1 3 1
3 1 1
4 5 1
5 6 1
6 1 1
8 1 1
1 9 1
9 10 1
1 12 1
13 12 1
14 15 1
15 16 1
16 14 1
14 18 1
18 14 1
14 19 1
19 20 1
20 21 1
14 22 1
22 23 1
14 21 1
23 21 1
14 24 1
24 23 1
14 25 1
23 25 1
26 23 1
14 27 1
27 23 1
20 28 1
28 14 1
14 30 1
30 14 1
23 31 1
23 32 1
32 14 1
14 32 1
32 33 1
33 14 1
7 35 1
35 7 1
7 36 1
36 7 1
7 37 1
37 26 1
7 39 1
39 7 1
1 40 1
40 41 1
41 1 1
1 42 1
42 38 1
1 43 1
43 1 1
1 44 1
44 1 1
1 45 1
45 1 1
1 46 1
46 4 1
20 47 1
47 20 1
1 48 1
48 23 1
7 20 1
38 20 1
20 38 1
4 49 1
49 4 1
1 50 1
50 1 1
4 10 1
10 4 1
10 7 1
7 23 1
7 49 1
1 35 1
35 34 1
34 23 1
1 52 1
52 23 1
1 53 1
53 1 1
