90 103 23
103 90 22
103 92 18
90 92 14
92 103 14
34 56 13
3 2 11
89 90 11
90 89 11
56 34 10
92 90 10
2 3 9
92 89 9
34 2 7
2 34 7
9 2 5
2 9 5
89 92 5
9 3 4
2 56 4
56 2 4
89 103 4
103 89 4
127 92 4
2 40 3
40 2 3
86 87 3
87 86 3
1 2 2
2 21 2
3 31 2
31 45 2
34 3 2
34 49 2
49 34 2
34 50 2
50 34 2
3 64 2
56 3 2
3 1 2
56 103 2
112 103 2
92 127 2
103 56 2
56 90 2
90 56 2
3 4 1
4 5 1
5 6 1
6 7 1
7 8 1
8 9 1
3 10 1
10 11 1
11 2 1
2 12 1
12 3 1
3 13 1
13 2 1
2 14 1
14 2 1
2 15 1
15 3 1
9 16 1
16 2 1
9 17 1
17 2 1
2 18 1
18 19 1
19 3 1
3 20 1
20 9 1
9 1 1
21 22 1
22 23 1
23 9 1
3 24 1
24 2 1
2 25 1
25 2 1
3 9 1
2 26 1
26 24 1
24 27 1
27 9 1
2 28 1
28 29 1
29 2 1
3 21 1
21 30 1
30 9 1
31 32 1
32 2 1
2 33 1
33 34 1
34 35 1
35 34 1
34 36 1
36 34 1
34 37 1
37 34 1
34 30 1
30 34 1
34 38 1
38 30 1
30 39 1
39 2 1
2 41 1
41 2 1
40 42 1
42 40 1
2 43 1
43 2 1
2 44 1
44 45 1
45 9 1
9 31 1
45 30 1
30 2 1
2 45 1
45 46 1
46 31 1
45 40 1
40 47 1
47 34 1
2 1 1
1 3 1
3 45 1
45 3 1
3 34 1
34 48 1
48 34 1
31 51 1
51 52 1
52 34 1
34 53 1
53 54 1
54 55 1
55 56 1
34 57 1
57 34 1
34 58 1
58 59 1
59 34 1
56 60 1
60 3 1
3 61 1
61 3 1
21 62 1
62 63 1
63 3 1
64 3 1
64 65 1
65 56 1
2 66 1
66 67 1
67 9 1
2 68 1
68 2 1
2 69 1
69 3 1
3 56 1
56 70 1
70 71 1
71 3 1
1 72 1
72 34 1
56 73 1
73 74 1
74 3 1
2 75 1
75 2 1
3 76 1
76 56 1
56 77 1
77 2 1
2 78 1
78 2 1
56 79 1
79 80 1
80 34 1
56 81 1
81 34 1
1 74 1
74 56 1
2 82 1
82 56 1
56 83 1
83 84 1
84 85 1
85 86 1
86 88 1
88 89 1
90 91 1
91 90 1
89 93 1
93 90 1
90 94 1
94 95 1
95 96 1
96 97 1
97 89 1
89 98 1
98 92 1
92 99 1
99 100 1
100 92 1
92 101 1
101 89 1
89 102 1
102 89 1
103 104 1
104 105 1
105 56 1
90 106 1
106 90 1
89 107 1
107 108 1
108 90 1
89 109 1
109 90 1
92 110 1
110 90 1
89 111 1
111 90 1
90 112 1
103 112 1
89 113 1
113 114 1
114 115 1
115 116 1
116 117 1
117 89 1
103 118 1
118 103 1
90 119 1
119 90 1
90 120 1
120 90 1
90 121 1
121 89 1
89 122 1
122 103 1
89 123 1
123 103 1
103 124 1
124 103 1
92 125 1
125 90 1
90 126 1
126 103 1
103 127 1
127 128 1
128 99 1
99 103 1
103 129 1
129 90 1
103 130 1
130 103 1
92 131 1
131 90 1
92 132 1
132 92 1
90 133 1
133 127 1
92 112 1
112 92 1
92 134 1
134 135 1
135 127 1
92 136 1
136 127 1
127 137 1
137 92 1
89 138 1
138 139 1
139 103 1
92 140 1
140 92 1
92 141 1
141 142 1
142 90 1
90 143 1
143 90 1
56 128 1
128 90 1
92 144 1
144 145 1
