4 16 64
16 4 62
4 38 16
7 4 15
28 4 15
38 4 15
4 7 14
42 4 14
4 28 13
4 42 12
38 7 12
7 38 11
7 41 9
28 16 8
16 28 8
41 7 8
4 22 7
4 62 7
70 4 7
62 4 6
4 70 6
38 42 5
22 4 5
7 16 4
16 10 4
6 4 3
15 4 3
16 15 3
15 16 3
16 25 3
15 7 3
18 16 3
38 41 3
41 38 3
42 38 3
42 16 3
16 42 3
4 27 3
55 7 3
56 4 3
4 41 3
4 6 2
7 10 2
12 4 2
4 15 2
16 20 2
20 16 2
25 16 2
16 26 2
7 15 2
7 29 2
25 28 2
16 18 2
34 7 2
7 27 2
27 7 2
36 7 2
28 25 2
27 4 2
4 10 2
7 55 2
16 7 2
38 16 2
4 56 2
41 4 2
16 38 2
64 28 2
4 64 2
10 7 2
1 2 1
2 3 1
3 4 1
4 5 1
5 6 1
4 8 1
8 9 1
9 4 1
10 11 1
11 12 1
4 12 1
12 13 1
13 12 1
4 14 1
14 15 1
16 17 1
17 15 1
15 18 1
18 19 1
19 18 1
18 15 1
16 21 1
21 22 1
22 23 1
23 22 1
22 24 1
24 16 1
26 16 1
16 27 1
27 28 1
29 7 1
7 30 1
30 18 1
18 7 1
7 18 1
18 25 1
16 31 1
31 26 1
26 25 1
25 7 1
7 32 1
32 7 1
10 16 1
10 18 1
26 33 1
33 34 1
7 35 1
35 7 1
7 34 1
7 28 1
28 36 1
36 37 1
37 36 1
7 36 1
25 38 1
38 39 1
39 38 1
38 40 1
40 38 1
10 43 1
43 28 1
10 44 1
44 45 1
45 46 1
46 4 1
4 47 1
47 42 1
28 48 1
48 16 1
27 16 1
4 49 1
49 28 1
16 50 1
50 28 1
28 50 1
50 51 1
51 4 1
4 24 1
24 4 1
10 4 1
25 4 1
42 18 1
18 4 1
42 52 1
52 53 1
53 7 1
42 7 1
7 54 1
54 7 1
29 55 1
28 42 1
16 56 1
4 57 1
57 4 1
4 58 1
58 4 1
22 59 1
59 16 1
41 16 1
16 60 1
60 16 1
4 61 1
61 4 1
62 38 1
4 63 1
63 4 1
38 63 1
63 38 1
16 64 1
64 4 1
28 7 1
7 65 1
65 7 1
4 66 1
66 22 1
22 16 1
22 67 1
67 4 1
4 67 1
67 28 1
28 68 1
68 69 1
69 7 1
7 70 1
7 71 1
71 72 1
72 4 1
7 73 1
73 4 1
7 31 1
31 7 1
4 74 1
74 42 1
42 22 1
22 42 1
41 75 1
75 7 1
7 76 1
76 7 1
7 77 1
77 7 1
7 78 1
78 79 1
79 80 1
80 4 1
4 81 1
81 70 1
70 16 1
