48 49 42
49 48 39
53 48 34
48 53 30
49 53 20
53 49 16
19 10 13
10 14 12
10 19 12
14 10 11
10 18 11
18 10 10
26 10 10
10 26 10
9 10 8
10 9 7
10 39 7
39 10 7
26 27 6
27 26 6
17 10 4
10 37 4
37 10 4
10 17 3
54 55 3
55 53 3
4 5 2
53 54 2
53 45 2
48 55 2
53 55 2
55 49 2
1 2 1
2 3 1
3 4 1
5 6 1
6 4 1
5 7 1
7 8 1
8 9 1
10 11 1
11 9 1
9 12 1
12 10 1
10 12 1
12 9 1
9 13 1
13 14 1
14 15 1
15 10 1
14 16 1
16 10 1
10 16 1
16 17 1
18 19 1
10 20 1
20 10 1
10 21 1
21 2 1
2 22 1
22 23 1
23 24 1
24 25 1
25 26 1
26 28 1
28 26 1
26 21 1
21 29 1
29 26 1
26 30 1
30 31 1
31 2 1
2 25 1
25 32 1
32 2 1
2 33 1
33 34 1
34 2 1
2 35 1
35 2 1
2 36 1
36 10 1
37 38 1
38 37 1
37 40 1
40 41 1
41 37 1
39 37 1
37 39 1
39 42 1
42 43 1
43 39 1
10 44 1
44 2 1
2 45 1
45 46 1
46 47 1
47 48 1
49 47 1
47 50 1
50 51 1
51 48 1
49 52 1
52 49 1
54 2 1
2 55 1
55 56 1
56 57 1
57 53 1
48 54 1
55 45 1
45 58 1
58 49 1
49 59 1
59 60 1
60 49 1
45 61 1
61 48 1
49 54 1
48 45 1
45 48 1
48 62 1
62 55 1
55 48 1
49 55 1
55 63 1
63 62 1
62 53 1
48 64 1
64 49 1
55 65 1
65 53 1
45 55 1
55 62 1
62 66 1
66 62 1
62 10 1
10 2 1
