5 16 30
16 5 28
5 14 25
14 5 19
24 5 17
5 24 14
5 20 10
5 22 8
22 5 8
54 16 8
54 24 8
5 10 7
20 5 7
34 5 7
5 54 7
16 54 7
54 5 7
10 5 6
6 24 6
24 54 6
24 10 6
24 6 5
54 57 5
5 6 4
20 24 4
10 24 4
14 39 4
4 5 3
6 7 3
7 10 3
10 12 3
12 10 3
10 13 3
16 14 3
10 7 3
14 20 3
5 33 3
33 5 3
16 20 3
58 54 3
57 54 3
20 16 3
16 34 3
95 5 3
24 34 3
13 10 2
6 5 2
7 5 2
10 20 2
24 20 2
14 24 2
24 36 2
36 24 2
23 24 2
23 5 2
5 39 2
34 42 2
42 34 2
20 26 2
39 45 2
45 39 2
48 16 2
16 24 2
49 16 2
5 7 2
7 24 2
54 58 2
65 64 2
64 66 2
54 64 2
7 20 2
24 7 2
26 54 2
86 16 2
20 58 2
16 93 2
5 95 2
5 97 2
5 100 2
100 16 2
1 2 1
2 3 1
3 4 1
5 4 1
7 8 1
8 9 1
9 10 1
10 11 1
11 7 1
13 4 1
14 15 1
15 14 1
16 17 1
17 16 1
16 18 1
18 16 1
5 19 1
19 5 1
20 6 1
6 10 1
10 6 1
5 21 1
21 22 1
22 23 1
23 20 1
20 23 1
23 22 1
22 24 1
20 25 1
25 24 1
24 26 1
26 24 1
24 27 1
27 6 1
6 22 1
22 6 1
24 28 1
28 29 1
29 30 1
30 5 1
20 31 1
31 5 1
5 32 1
32 5 1
33 34 1
34 33 1
20 35 1
35 5 1
5 37 1
37 23 1
24 32 1
32 38 1
38 23 1
39 38 1
38 40 1
40 16 1
16 40 1
40 26 1
26 5 1
5 41 1
41 42 1
42 43 1
43 34 1
42 5 1
5 23 1
23 44 1
44 26 1
26 42 1
34 20 1
26 39 1
45 46 1
46 45 1
39 46 1
46 47 1
47 39 1
39 47 1
47 46 1
46 8 1
8 45 1
45 48 1
24 49 1
5 50 1
50 29 1
29 5 1
5 49 1
16 49 1
49 5 1
5 51 1
51 5 1
5 52 1
52 16 1
22 53 1
53 34 1
20 22 1
5 55 1
55 5 1
20 54 1
5 56 1
56 5 1
57 58 1
58 57 1
57 59 1
59 58 1
58 24 1
24 60 1
60 24 1
24 61 1
61 14 1
14 62 1
62 14 1
39 14 1
39 23 1
23 54 1
54 63 1
63 54 1
16 64 1
64 65 1
64 58 1
58 65 1
66 64 1
66 16 1
5 31 1
31 16 1
26 67 1
67 20 1
16 10 1
24 68 1
68 64 1
64 5 1
64 54 1
64 69 1
69 24 1
24 70 1
70 5 1
20 71 1
71 5 1
5 72 1
72 64 1
64 73 1
73 64 1
64 74 1
74 5 1
39 75 1
75 39 1
39 20 1
54 76 1
76 54 1
5 48 1
5 77 1
77 24 1
7 34 1
16 78 1
78 39 1
39 79 1
79 54 1
24 80 1
80 34 1
34 81 1
81 5 1
5 79 1
79 82 1
82 54 1
54 83 1
83 54 1
14 84 1
84 5 1
5 82 1
82 85 1
85 14 1
14 34 1
34 54 1
5 34 1
34 26 1
26 82 1
82 26 1
54 20 1
20 86 1
86 26 1
26 86 1
86 54 1
54 87 1
87 86 1
16 86 1
5 26 1
54 88 1
88 5 1
5 89 1
89 16 1
20 14 1
39 90 1
90 24 1
57 20 1
58 5 1
16 91 1
91 16 1
14 92 1
92 5 1
93 20 1
16 57 1
57 16 1
14 94 1
94 5 1
5 96 1
96 95 1
97 5 1
97 23 1
5 98 1
98 5 1
5 62 1
62 16 1
93 5 1
5 99 1
99 5 1
100 62 1
62 100 1
16 39 1
39 12 1
12 5 1
10 36 1
36 11 1
11 10 1
10 31 1
31 54 1
54 8 1
8 5 1
34 23 1
23 101 1
101 23 1
24 93 1
93 102 1
102 39 1
39 28 1
28 5 1
39 103 1
103 5 1
