24 2 30
2 38 28
38 2 25
2 24 21
2 15 19
15 2 18
38 57 14
2 11 13
11 2 13
57 38 12
28 24 9
8 11 7
24 22 7
11 8 6
2 8 6
8 2 6
24 28 6
8 24 6
2 57 6
17 2 5
2 7 5
7 2 5
17 24 5
7 24 5
11 24 5
24 8 5
74 38 5
13 11 4
2 16 4
24 7 4
22 24 4
24 17 4
24 11 4
57 58 4
57 74 4
4 2 3
7 8 3
12 11 3
11 13 3
11 14 3
2 4 3
16 17 3
2 18 3
2 17 3
2 31 3
31 2 3
59 58 3
75 74 3
38 75 3
75 24 3
74 24 3
2 3 2
11 12 2
14 11 2
17 15 2
17 4 2
4 5 2
24 4 2
22 2 2
15 24 2
28 8 2
40 28 2
38 17 2
40 24 2
16 57 2
54 15 2
58 59 2
58 22 2
57 2 2
57 24 2
24 57 2
38 74 2
74 57 2
74 82 2
82 74 2
24 74 2
74 75 2
24 84 2
84 2 2
11 38 2
1 2 1
3 2 1
3 4 1
2 5 1
5 6 1
6 2 1
2 6 1
6 7 1
8 9 1
9 10 1
10 8 1
8 13 1
14 2 1
15 16 1
18 17 1
5 2 1
18 2 1
18 19 1
19 2 1
8 7 1
11 17 1
17 11 1
11 20 1
20 7 1
16 21 1
21 22 1
22 23 1
23 17 1
2 25 1
25 26 1
26 24 1
16 24 1
24 27 1
27 24 1
22 7 1
4 24 1
22 28 1
24 29 1
29 17 1
2 30 1
30 2 1
17 5 1
5 24 1
24 5 1
5 32 1
32 33 1
33 34 1
34 24 1
2 35 1
35 24 1
24 30 1
30 36 1
36 28 1
28 2 1
2 36 1
36 37 1
37 38 1
38 39 1
39 38 1
38 40 1
24 16 1
4 41 1
41 28 1
28 42 1
42 2 1
17 40 1
28 40 1
40 22 1
22 43 1
43 38 1
38 24 1
24 44 1
44 45 1
45 44 1
44 38 1
2 44 1
44 46 1
46 17 1
5 47 1
47 2 1
2 48 1
48 17 1
17 49 1
49 38 1
38 5 1
5 50 1
50 51 1
51 2 1
2 52 1
52 53 1
53 54 1
54 8 1
24 55 1
55 2 1
2 56 1
56 24 1
2 28 1
2 40 1
57 11 1
11 54 1
15 54 1
54 38 1
58 57 1
58 2 1
4 60 1
60 59 1
58 38 1
58 24 1
24 58 1
22 61 1
61 24 1
2 62 1
62 58 1
58 63 1
63 2 1
2 64 1
64 54 1
54 65 1
65 54 1
54 16 1
16 40 1
57 66 1
66 2 1
2 67 1
67 68 1
68 11 1
8 28 1
8 38 1
38 69 1
69 70 1
70 2 1
57 28 1
24 71 1
71 22 1
22 27 1
27 28 1
38 67 1
67 72 1
72 68 1
68 72 1
72 16 1
57 73 1
73 38 1
74 2 1
57 75 1
75 57 1
24 76 1
76 24 1
24 77 1
77 78 1
78 24 1
24 72 1
72 54 1
54 79 1
79 12 1
11 22 1
24 38 1
38 71 1
71 24 1
22 80 1
80 75 1
75 2 1
38 81 1
81 22 1
22 75 1
75 82 1
82 57 1
2 54 1
54 14 1
14 54 1
54 2 1
38 83 1
83 38 1
38 28 1
28 44 1
44 54 1
54 13 1
13 24 1
2 74 1
84 11 1
28 74 1
74 85 1
85 84 1
2 12 1
12 2 1
2 86 1
86 2 1
2 87 1
87 2 1
2 88 1
88 75 1
84 74 1
24 81 1
81 84 1
2 84 1
84 89 1
89 2 1
38 11 1
38 54 1
15 90 1
90 91 1
