2 21 73
21 2 72
7 2 16
2 19 14
2 7 13
19 2 13
7 19 12
19 7 10
19 21 7
20 21 6
21 20 5
21 22 5
22 21 5
79 19 5
8 7 4
8 6 4
6 8 4
2 8 4
2 27 4
21 19 4
19 79 4
6 7 3
6 2 3
2 6 3
8 2 3
19 17 3
17 19 3
21 33 3
33 21 3
21 7 3
2 16 3
2 70 3
21 70 3
2 23 3
23 2 3
2 129 3
129 2 3
7 8 2
10 11 2
22 20 2
27 22 2
2 29 2
32 21 2
7 21 2
41 2 2
44 21 2
45 2 2
16 2 2
69 2 2
70 2 2
70 21 2
19 69 2
83 84 2
27 2 2
2 102 2
2 125 2
1 2 1
2 3 1
3 4 1
4 2 1
2 5 1
5 6 1
7 9 1
9 2 1
2 10 1
11 12 1
12 10 1
11 10 1
10 6 1
6 13 1
13 8 1
2 14 1
14 15 1
15 6 1
6 16 1
16 17 1
17 7 1
7 18 1
18 7 1
19 20 1
20 22 1
21 23 1
23 7 1
7 24 1
24 25 1
25 26 1
26 2 1
20 27 1
22 28 1
28 21 1
29 2 1
29 21 1
21 30 1
30 21 1
21 31 1
31 32 1
21 32 1
2 32 1
32 2 1
2 34 1
34 2 1
2 35 1
35 2 1
2 36 1
36 37 1
37 8 1
8 36 1
36 7 1
7 38 1
38 7 1
7 39 1
39 7 1
6 21 1
7 40 1
40 6 1
6 41 1
2 41 1
21 42 1
42 19 1
16 43 1
43 21 1
21 44 1
21 45 1
45 8 1
8 46 1
46 6 1
8 45 1
45 21 1
2 47 1
47 48 1
48 49 1
49 21 1
21 50 1
50 2 1
2 45 1
2 51 1
51 2 1
2 52 1
52 53 1
53 54 1
54 21 1
21 54 1
54 55 1
55 56 1
56 57 1
57 58 1
58 44 1
21 59 1
59 60 1
60 56 1
56 44 1
44 61 1
61 2 1
2 44 1
44 19 1
21 62 1
62 21 1
21 63 1
63 64 1
64 65 1
65 66 1
66 2 1
2 67 1
67 2 1
7 68 1
68 69 1
2 71 1
71 2 1
70 72 1
72 70 1
70 73 1
73 69 1
2 74 1
74 2 1
70 69 1
69 6 1
69 7 1
69 19 1
19 70 1
70 19 1
2 75 1
75 7 1
7 70 1
70 36 1
36 21 1
21 76 1
76 7 1
7 6 1
7 77 1
77 19 1
19 78 1
78 19 1
19 47 1
47 80 1
80 81 1
81 82 1
82 45 1
45 83 1
84 83 1
84 21 1
19 85 1
85 19 1
19 86 1
86 19 1
19 45 1
21 87 1
87 88 1
88 47 1
47 89 1
89 90 1
90 91 1
91 19 1
19 92 1
92 93 1
93 94 1
94 90 1
90 95 1
95 96 1
96 97 1
97 19 1
21 53 1
53 33 1
33 95 1
95 98 1
98 2 1
19 99 1
99 2 1
21 100 1
100 101 1
101 2 1
102 2 1
102 21 1
21 103 1
103 104 1
104 21 1
2 105 1
105 106 1
106 2 1
21 107 1
107 21 1
21 108 1
108 109 1
109 2 1
2 94 1
94 2 1
2 110 1
110 2 1
2 111 1
111 94 1
94 112 1
112 2 1
2 113 1
113 114 1
114 83 1
83 2 1
16 115 1
115 21 1
21 116 1
116 36 1
36 2 1
27 117 1
117 8 1
2 118 1
118 21 1
2 119 1
119 16 1
2 120 1
120 121 1
121 2 1
21 122 1
122 123 1
123 7 1
21 124 1
124 2 1
125 126 1
126 2 1
2 79 1
19 127 1
127 128 1
128 2 1
125 2 1
2 130 1
130 131 1
131 2 1
2 132 1
132 2 1
2 133 1
133 2 1
2 134 1
134 135 1
135 136 1
136 2 1
2 137 1
137 138 1
138 19 1
19 139 1
139 140 1
140 19 1
7 141 1
141 142 1
142 2 1
21 143 1
143 144 1
144 145 1
145 146 1
146 147 1
147 148 1
148 149 1
149 150 1
150 151 1
151 152 1
152 153 1
153 154 1
154 155 1
155 156 1
156 157 1
157 19 1
19 158 1
158 159 1
159 160 1
160 161 1
161 21 1
21 162 1
162 163 1
163 164 1
164 156 1
156 165 1
165 166 1
166 167 1
167 156 1
156 168 1
168 169 1
169 170 1
170 171 1
171 7 1
7 152 1
152 21 1
21 172 1
172 173 1
173 166 1
166 162 1
162 174 1
174 175 1
175 176 1
176 177 1
177 178 1
178 179 1
179 180 1
180 181 1
181 148 1
148 182 1
182 183 1
183 158 1
158 171 1
171 184 1
184 21 1
21 185 1
185 186 1
186 187 1
187 188 1
188 151 1
