78 97 38
97 78 38
118 3 21
3 118 21
72 78 15
78 72 14
100 78 14
78 3 13
65 97 13
3 78 12
78 100 12
97 65 12
3 23 11
3 104 11
23 3 10
104 3 10
3 65 8
65 3 8
3 114 8
22 23 7
23 22 7
98 78 7
114 3 7
97 3 6
3 97 5
87 100 5
79 72 4
79 78 4
78 98 4
100 87 4
100 114 4
3 22 3
72 65 3
72 79 3
87 78 3
78 87 3
78 96 3
78 65 3
3 100 3
100 97 3
114 115 3
94 115 3
115 100 3
8 9 2
8 3 2
3 21 2
3 29 2
22 3 2
40 41 2
41 22 2
22 40 2
65 72 2
78 71 2
87 3 2
3 87 2
90 78 2
3 94 2
94 3 2
96 78 2
100 102 2
65 78 2
78 79 2
100 3 2
97 100 2
115 116 2
114 100 2
100 115 2
115 114 2
114 94 2
114 117 2
117 114 2
115 3 2
96 65 2
65 96 2
3 132 2
132 3 2
1 2 1
2 3 1
3 4 1
4 5 1
5 6 1
6 7 1
7 8 1
9 8 1
9 3 1
3 9 1
9 10 1
10 11 1
11 9 1
9 12 1
12 8 1
3 8 1
3 13 1
13 3 1
3 14 1
14 3 1
3 15 1
15 3 1
3 16 1
16 3 1
3 17 1
17 18 1
18 19 1
19 20 1
20 3 1
3 19 1
19 3 1
21 22 1
22 24 1
24 22 1
22 25 1
25 3 1
23 26 1
26 27 1
27 3 1
3 28 1
28 3 1
29 4 1
4 28 1
28 30 1
30 31 1
31 3 1
29 3 1
3 32 1
32 3 1
3 33 1
33 34 1
34 3 1
22 35 1
35 36 1
36 37 1
37 21 1
21 38 1
38 21 1
21 39 1
39 40 1
40 42 1
42 39 1
39 43 1
43 39 1
39 44 1
44 22 1
22 39 1
39 42 1
42 22 1
22 43 1
43 22 1
22 45 1
45 46 1
46 47 1
47 3 1
3 48 1
48 21 1
21 46 1
46 3 1
21 3 1
3 49 1
49 3 1
3 50 1
50 3 1
3 51 1
51 50 1
50 52 1
52 3 1
3 53 1
53 3 1
3 54 1
54 55 1
55 56 1
56 57 1
57 58 1
58 3 1
3 59 1
59 60 1
60 61 1
61 62 1
62 63 1
63 64 1
64 4 1
4 3 1
65 66 1
66 67 1
67 65 1
65 68 1
68 65 1
65 69 1
69 65 1
65 70 1
70 71 1
71 72 1
65 71 1
71 73 1
73 71 1
71 74 1
74 75 1
75 71 1
71 76 1
76 72 1
72 77 1
77 78 1
71 79 1
78 80 1
80 78 1
71 81 1
81 82 1
82 35 1
35 3 1
3 83 1
83 84 1
84 85 1
85 86 1
86 87 1
78 88 1
88 78 1
78 89 1
89 78 1
3 90 1
78 90 1
78 91 1
91 78 1
78 92 1
92 93 1
93 28 1
28 94 1
94 95 1
95 3 1
96 79 1
97 79 1
79 97 1
78 99 1
99 100 1
100 101 1
101 100 1
100 79 1
79 100 1
102 100 1
78 103 1
103 100 1
102 78 1
78 105 1
105 97 1
3 106 1
106 98 1
98 65 1
3 107 1
107 49 1
49 97 1
3 98 1
3 79 1
78 108 1
108 98 1
97 109 1
109 97 1
97 110 1
110 3 1
78 111 1
111 78 1
97 98 1
78 112 1
112 113 1
113 104 1
104 100 1
97 114 1
116 117 1
117 94 1
116 115 1
114 99 1
99 114 1
114 118 1
118 119 1
119 3 1
114 120 1
120 3 1
114 116 1
116 114 1
115 94 1
94 114 1
3 115 1
3 121 1
121 3 1
3 122 1
122 98 1
98 123 1
123 124 1
124 125 1
125 126 1
126 127 1
127 128 1
128 127 1
127 129 1
129 3 1
3 130 1
130 3 1
104 96 1
96 131 1
131 65 1
3 133 1
133 104 1
104 28 1
28 134 1
134 3 1
65 135 1
