8 9 38
9 8 38
8 19 29
19 8 27
8 7 24
7 8 22
9 10 18
10 8 18
8 10 18
10 11 17
11 10 17
10 9 17
20 22 17
22 20 14
12 6 10
6 12 9
20 21 9
21 20 9
11 8 8
12 7 8
7 12 8
8 11 7
6 32 6
32 6 6
8 16 6
16 8 6
7 9 6
9 11 5
15 17 5
9 7 5
11 9 4
8 12 4
13 15 4
8 23 4
23 8 4
25 26 4
8 5 4
16 18 4
18 16 4
6 38 4
38 6 4
5 39 4
39 5 4
6 7 3
12 8 3
9 6 3
13 14 3
14 13 3
17 14 3
6 8 3
26 25 3
25 27 3
27 25 3
26 9 3
5 8 3
22 21 3
9 16 3
6 10 2
15 13 2
14 15 2
17 15 2
15 6 2
6 18 2
18 6 2
8 6 2
25 14 2
17 25 2
27 26 2
21 22 2
6 15 2
16 9 2
7 11 2
11 7 2
38 32 2
32 38 2
9 27 2
9 26 2
6 46 2
46 6 2
1 2 1
2 3 1
3 4 1
4 5 1
5 6 1
9 12 1
12 10 1
8 13 1
15 16 1
16 13 1
13 17 1
6 19 1
19 20 1
22 9 1
7 13 1
13 24 1
24 25 1
14 25 1
25 17 1
14 17 1
27 6 1
6 26 1
26 8 1
8 27 1
26 27 1
5 28 1
28 5 1
5 11 1
5 24 1
24 29 1
29 8 1
8 30 1
30 31 1
31 15 1
15 31 1
31 9 1
10 26 1
26 21 1
21 6 1
17 13 1
14 6 1
6 13 1
13 8 1
19 9 1
10 33 1
33 8 1
10 29 1
29 27 1
27 18 1
18 5 1
16 10 1
16 34 1
34 9 1
7 6 1
6 22 1
22 8 1
7 24 1
24 35 1
35 16 1
16 6 1
6 36 1
36 20 1
22 32 1
32 37 1
37 6 1
7 5 1
5 12 1
27 9 1
27 8 1
11 40 1
40 16 1
9 15 1
15 9 1
8 15 1
15 8 1
10 16 1
16 11 1
11 16 1
16 41 1
41 32 1
32 42 1
42 43 1
43 44 1
44 6 1
6 27 1
26 45 1
45 6 1
6 47 1
47 48 1
48 49 1
49 9 1
10 12 1
12 20 1
20 50 1
50 18 1
18 20 1
21 7 1
7 51 1
51 8 1
12 51 1
51 52 1
52 53 1
53 54 1
54 55 1
55 5 1
5 56 1
56 8 1
19 12 1
12 9 1
