25 9 75
9 25 73
3 16 48
16 3 44
18 9 35
9 18 30
15 3 24
3 15 20
9 38 19
38 9 18
11 25 17
9 3 13
25 11 13
3 9 12
25 16 11
16 25 11
9 6 10
6 9 9
9 21 9
25 3 9
13 9 9
6 7 8
7 6 8
21 9 8
3 25 8
25 13 8
9 13 8
3 2 7
2 3 7
13 25 7
11 12 5
14 15 5
9 23 5
23 9 5
9 15 5
12 11 4
15 14 4
3 18 4
9 16 4
15 25 4
25 15 4
16 15 3
12 17 3
19 20 3
20 19 3
19 3 3
3 11 3
27 3 3
28 3 3
9 37 3
37 9 3
5 7 2
8 9 2
9 10 2
10 9 2
12 13 2
13 12 2
17 12 2
13 11 2
3 19 2
11 9 2
9 11 2
16 19 2
27 28 2
28 27 2
28 15 2
15 28 2
3 28 2
18 25 2
3 27 2
13 18 2
15 18 2
15 9 2
16 13 2
13 16 2
16 9 2
1 2 1
2 1 1
1 3 1
3 1 1
1 4 1
4 5 1
5 6 1
6 5 1
7 5 1
7 8 1
9 8 1
10 6 1
6 11 1
11 14 1
9 12 1
17 13 1
11 13 1
12 3 1
3 8 1
8 10 1
18 20 1
20 9 1
21 22 1
22 9 1
9 20 1
20 18 1
9 24 1
24 9 1
19 16 1
3 26 1
26 27 1
16 28 1
9 29 1
29 30 1
30 3 1
25 31 1
31 13 1
25 32 1
32 3 1
6 3 1
16 11 1
3 33 1
33 3 1
15 16 1
27 25 1
16 18 1
18 13 1
13 34 1
34 13 1
15 27 1
18 15 1
25 35 1
35 9 1
25 36 1
36 25 1
38 25 1
