5 4 217
4 5 213
5 36 31
36 5 30
18 5 26
5 18 23
5 6 22
6 4 21
4 6 20
23 4 20
6 5 19
4 23 19
4 36 16
36 4 11
61 4 11
10 4 10
4 10 10
19 18 10
42 4 10
4 42 10
8 4 9
9 10 9
4 61 9
4 8 8
18 19 8
5 19 7
23 5 7
5 8 6
19 5 6
19 20 6
5 23 6
10 9 5
4 15 5
4 18 5
8 5 5
7 5 4
4 9 4
5 9 4
10 5 4
15 4 4
15 5 4
22 4 4
5 26 4
26 5 4
20 19 4
42 43 4
42 5 4
55 4 4
5 7 3
9 5 3
9 4 3
5 15 3
21 19 3
20 18 3
4 22 3
4 19 3
5 38 3
5 40 3
43 4 3
4 43 3
43 42 3
5 42 3
4 55 3
18 4 3
57 4 3
6 7 2
6 9 2
13 4 2
18 20 2
4 24 2
24 4 2
5 27 2
27 5 2
6 23 2
35 4 2
4 35 2
38 5 2
38 4 2
40 5 2
36 6 2
50 51 2
1 2 1
2 3 1
3 4 1
10 11 1
11 9 1
9 12 1
12 6 1
9 13 1
6 14 1
14 5 1
6 10 1
5 10 1
15 16 1
16 15 1
5 17 1
17 4 1
5 20 1
20 5 1
20 21 1
5 21 1
5 22 1
18 8 1
18 6 1
7 25 1
25 6 1
8 6 1
6 26 1
26 4 1
4 28 1
28 5 1
4 29 1
29 4 1
4 30 1
30 23 1
5 31 1
31 6 1
19 21 1
4 32 1
32 5 1
19 4 1
4 33 1
33 4 1
4 34 1
34 4 1
4 13 1
5 35 1
24 5 1
5 37 1
37 5 1
36 38 1
4 38 1
38 39 1
39 5 1
40 36 1
36 40 1
4 41 1
41 24 1
35 5 1
36 42 1
42 44 1
44 42 1
4 45 1
45 5 1
5 43 1
43 46 1
46 5 1
5 47 1
47 45 1
45 42 1
43 5 1
36 9 1
10 48 1
48 9 1
9 6 1
6 36 1
4 49 1
49 50 1
51 50 1
51 49 1
49 51 1
51 52 1
52 51 1
51 5 1
5 13 1
13 53 1
53 4 1
23 27 1
27 54 1
54 5 1
40 4 1
18 56 1
56 5 1
5 55 1
5 57 1
4 58 1
58 5 1
36 57 1
4 57 1
36 18 1
19 59 1
59 18 1
5 60 1
60 61 1
4 62 1
62 4 1
18 61 1
4 63 1
63 5 1
4 64 1
64 65 1
65 66 1
