11 13 97
13 11 93
13 6 26
7 6 23
6 13 23
6 7 20
13 10 20
10 13 18
11 20 17
20 11 17
13 7 15
13 20 15
20 13 14
7 13 12
11 3 9
4 11 9
4 13 9
11 25 9
25 11 9
6 11 8
11 6 7
11 4 7
3 4 6
10 11 6
3 11 6
17 11 6
13 3 6
7 11 5
6 4 5
4 6 5
13 43 5
6 3 4
18 19 4
17 6 4
6 17 4
11 17 4
3 13 4
11 29 4
3 20 4
4 20 4
6 10 3
11 10 3
11 7 3
19 18 3
18 20 3
4 3 3
29 11 3
13 4 3
20 3 3
43 4 3
1 2 2
4 5 2
5 6 2
3 6 2
20 18 2
11 22 2
22 11 2
10 4 2
13 28 2
28 13 2
13 15 2
15 13 2
5 4 2
43 13 2
47 3 2
47 20 2
20 47 2
2 3 1
6 8 1
8 5 1
5 7 1
3 9 1
9 6 1
7 5 1
3 7 1
11 12 1
12 10 1
3 10 1
6 14 1
14 1 1
2 4 1
11 15 1
15 7 1
7 8 1
8 13 1
6 16 1
16 13 1
10 17 1
17 15 1
15 18 1
19 3 1
3 18 1
20 17 1
13 21 1
21 13 1
13 17 1
17 13 1
3 17 1
17 7 1
7 17 1
11 23 1
23 13 1
4 24 1
24 10 1
10 15 1
15 3 1
7 4 1
4 10 1
11 26 1
26 11 1
7 23 1
23 7 1
6 27 1
27 6 1
29 13 1
13 29 1
29 4 1
13 30 1
30 13 1
3 31 1
31 13 1
13 12 1
12 13 1
11 32 1
32 11 1
11 33 1
33 11 1
13 34 1
34 20 1
20 15 1
15 4 1
20 35 1
35 13 1
10 7 1
20 6 1
6 20 1
20 4 1
20 36 1
36 5 1
20 31 1
31 4 1
20 37 1
37 4 1
4 38 1
38 36 1
36 4 1
10 39 1
39 13 1
20 33 1
33 40 1
40 15 1
15 11 1
4 41 1
41 6 1
4 7 1
6 32 1
32 6 1
6 42 1
42 4 1
13 44 1
44 43 1
43 45 1
45 4 1
43 11 1
11 43 1
43 46 1
46 13 1
4 43 1
43 12 1
12 43 1
13 47 1
3 47 1
3 48 1
48 49 1
49 50 1
50 51 1
51 52 1
52 53 1
53 54 1
54 55 1
55 56 1
56 57 1
57 58 1
58 59 1
59 60 1
60 61 1
61 3 1
3 62 1
