13 6 79
6 13 62
14 13 43
13 14 38
4 13 26
13 4 25
6 4 21
29 13 19
13 29 18
10 13 15
13 24 13
24 13 13
13 10 10
24 6 10
4 6 9
4 10 8
6 10 8
6 9 8
6 29 8
10 4 7
10 6 7
6 24 7
29 6 7
9 13 6
23 6 6
4 9 5
4 14 5
13 22 5
5 6 4
10 14 4
6 23 4
22 24 4
9 24 4
29 4 4
10 16 3
16 10 3
24 4 3
37 38 3
4 5 2
6 5 2
9 10 2
13 15 2
15 13 2
13 20 2
20 13 2
22 10 2
4 23 2
22 6 2
25 13 2
14 6 2
4 29 2
4 37 2
1 2 1
2 3 1
3 4 1
6 7 1
7 6 1
5 8 1
8 5 1
4 11 1
11 10 1
10 12 1
12 13 1
14 10 1
6 16 1
16 6 1
6 17 1
17 4 1
4 18 1
18 4 1
4 16 1
6 19 1
19 13 1
4 21 1
21 13 1
10 23 1
23 10 1
24 22 1
6 25 1
9 4 1
13 9 1
9 6 1
24 25 1
4 24 1
4 22 1
24 26 1
26 13 1
14 27 1
27 14 1
14 4 1
14 28 1
28 22 1
6 14 1
6 30 1
30 4 1
13 31 1
31 6 1
6 32 1
32 29 1
6 33 1
33 13 1
6 34 1
34 10 1
29 35 1
35 4 1
10 29 1
13 27 1
27 13 1
13 34 1
34 13 1
13 36 1
36 29 1
38 37 1
38 4 1
38 10 1
4 39 1
39 13 1
13 40 1
40 13 1
16 41 1
41 16 1
13 42 1
42 10 1
16 43 1
43 4 1
