6 4 48
4 6 45
9 11 25
11 9 23
16 10 17
10 16 14
10 9 9
16 15 7
15 16 7
9 10 6
10 13 6
3 6 6
11 10 5
15 9 5
9 15 5
2 10 5
6 3 5
10 11 4
13 10 4
16 6 4
12 6 4
6 7 3
7 6 3
4 10 3
9 16 3
10 2 3
12 7 3
6 12 3
7 12 3
10 20 3
1 2 2
2 1 2
1 3 2
3 1 2
1 4 2
12 10 2
14 11 2
6 16 2
10 4 2
7 5 2
6 18 2
18 4 2
4 18 2
18 6 2
20 10 2
13 9 2
4 1 1
4 5 1
5 1 1
1 6 1
6 8 1
8 9 1
10 12 1
10 14 1
11 14 1
11 15 1
15 11 1
11 16 1
13 16 1
16 2 1
10 3 1
3 10 1
15 2 1
10 15 1
6 10 1
11 6 1
6 5 1
5 7 1
5 12 1
7 9 1
9 6 1
4 17 1
17 4 1
18 19 1
19 6 1
4 3 1
4 2 1
2 12 1
5 18 1
6 13 1
13 7 1
20 16 1
9 13 1
10 7 1
6 21 1
