8 5 49
5 8 49
6 5 32
5 6 28
6 8 21
11 6 21
5 4 20
8 6 18
6 11 18
8 4 16
4 5 13
5 11 13
11 5 13
4 6 12
4 8 12
6 4 8
11 4 7
4 7 7
4 11 7
24 5 7
5 24 7
7 8 5
7 4 4
8 11 4
11 8 4
5 7 3
9 11 3
10 21 3
21 7 3
7 5 2
6 7 2
4 10 2
8 13 2
13 5 2
4 14 2
14 5 2
4 15 2
10 20 2
20 10 2
22 6 2
4 24 2
5 22 2
22 8 2
4 22 2
7 21 2
21 5 2
5 10 2
1 2 1
2 3 1
3 4 1
8 7 1
7 9 1
9 4 1
10 9 1
11 9 1
11 10 1
10 11 1
4 9 1
11 7 1
4 12 1
12 5 1
5 13 1
8 15 1
15 6 1
6 12 1
12 4 1
6 14 1
7 16 1
16 11 1
11 16 1
16 8 1
8 16 1
16 4 1
15 5 1
4 17 1
17 6 1
8 18 1
18 8 1
13 4 1
5 19 1
19 10 1
21 4 1
21 10 1
10 22 1
5 23 1
23 5 1
22 4 1
15 12 1
12 13 1
13 14 1
14 15 1
15 14 1
14 4 1
14 22 1
22 11 1
8 25 1
25 4 1
5 26 1
26 8 1
24 25 1
25 24 1
24 4 1
24 8 1
11 22 1
6 22 1
22 5 1
22 21 1
21 27 1
27 5 1
8 10 1
10 5 1
8 28 1
28 21 1
5 21 1
7 11 1
11 29 1
29 11 1
21 11 1
11 25 1
25 11 1
11 30 1
30 11 1
8 31 1
31 5 1
5 32 1
32 5 1
8 21 1
7 14 1
14 12 1
12 6 1
10 8 1
