13 22 47
22 13 45
6 11 17
6 22 16
13 6 15
5 6 13
22 6 13
19 13 12
6 13 12
11 6 12
6 5 11
10 6 9
6 10 9
13 19 8
20 19 6
7 6 6
10 7 5
7 10 5
22 19 5
19 22 5
23 6 5
6 23 5
6 7 5
13 20 4
11 13 4
3 4 3
7 9 3
12 13 3
22 7 3
4 3 2
9 7 2
11 7 2
7 11 2
14 13 2
13 12 2
19 20 2
13 21 2
21 13 2
22 23 2
23 24 2
24 20 2
22 11 2
13 27 2
27 13 2
1 2 1
2 3 1
4 5 1
5 7 1
7 8 1
8 7 1
9 10 1
10 11 1
11 12 1
13 14 1
13 15 1
15 16 1
16 17 1
17 14 1
13 18 1
18 13 1
19 21 1
21 22 1
20 22 1
23 19 1
19 24 1
24 19 1
13 23 1
20 23 1
7 13 1
13 5 1
7 22 1
23 25 1
25 13 1
11 26 1
26 6 1
22 25 1
25 6 1
11 22 1
22 28 1
28 6 1
11 28 1
28 29 1
29 25 1
25 5 1
