7 6 40
6 7 39
6 4 28
11 6 25
6 11 23
4 6 20
10 6 19
4 5 18
5 6 16
6 10 15
7 10 13
10 7 12
4 7 11
6 5 11
4 10 10
7 4 8
10 4 8
6 36 7
36 6 7
5 4 6
5 17 5
6 17 5
5 14 5
7 11 4
5 12 4
12 4 4
17 4 4
17 6 4
11 4 4
5 10 4
11 5 3
4 17 3
36 4 3
17 36 3
10 11 2
17 18 2
4 11 2
11 7 2
17 22 2
20 6 2
25 5 2
5 11 2
10 5 2
14 4 2
7 5 2
36 17 2
14 5 2
38 5 2
1 2 1
2 3 1
3 4 1
6 8 1
8 7 1
7 9 1
9 5 1
12 5 1
5 13 1
13 4 1
12 14 1
14 12 1
12 15 1
15 12 1
12 16 1
16 11 1
11 12 1
6 16 1
16 12 1
18 17 1
18 4 1
6 19 1
19 5 1
4 14 1
14 20 1
20 21 1
21 4 1
22 17 1
4 23 1
23 10 1
10 20 1
22 24 1
24 4 1
4 20 1
17 7 1
14 11 1
17 25 1
25 17 1
6 25 1
4 25 1
25 23 1
23 5 1
5 26 1
26 4 1
4 27 1
27 6 1
10 28 1
28 10 1
5 29 1
29 7 1
6 30 1
30 7 1
17 5 1
5 25 1
6 31 1
31 6 1
6 14 1
14 6 1
4 32 1
32 6 1
5 33 1
33 6 1
4 34 1
34 7 1
6 35 1
35 6 1
11 10 1
7 36 1
36 10 1
10 36 1
6 37 1
37 11 1
4 38 1
6 38 1
5 36 1
4 36 1
36 5 1
