8 9 30
12 9 26
9 5 25
9 12 25
9 8 23
5 9 21
9 11 19
5 8 19
11 9 18
8 5 14
18 9 11
8 4 9
9 18 9
4 8 8
6 10 7
10 6 7
9 22 7
2 5 6
11 8 6
12 11 6
8 11 6
22 9 6
11 5 5
4 2 4
5 2 4
11 12 4
8 12 4
13 7 4
5 6 3
7 10 3
5 11 3
7 13 3
2 3 2
5 1 2
1 5 2
6 7 2
7 8 2
5 7 2
10 7 2
9 10 2
12 8 2
9 13 2
12 18 2
18 7 2
23 18 2
18 23 2
11 23 2
1 2 1
3 1 1
1 4 1
9 7 1
7 5 1
10 2 1
3 5 1
10 5 1
8 7 1
7 6 1
7 9 1
5 12 1
2 4 1
2 8 1
7 12 1
10 11 1
11 14 1
14 8 1
13 9 1
6 5 1
6 15 1
15 12 1
12 16 1
16 3 1
3 8 1
5 4 1
12 5 1
5 17 1
17 8 1
8 10 1
10 17 1
17 10 1
10 12 1
18 12 1
8 18 1
9 19 1
19 9 1
9 20 1
20 18 1
7 21 1
21 7 1
7 22 1
22 18 1
22 4 1
4 1 1
1 16 1
16 9 1
7 18 1
9 23 1
18 8 1
23 8 1
23 11 1
23 9 1
