5 15 51
5 77 50
77 5 50
15 5 48
5 30 45
30 5 42
5 12 37
12 5 33
33 5 21
5 33 19
5 18 15
18 5 15
45 5 14
5 45 13
18 12 12
30 77 12
77 30 12
12 18 11
5 46 11
46 5 11
31 27 7
55 5 7
5 55 7
12 15 6
21 5 6
69 30 6
5 85 6
17 5 5
15 26 5
26 15 5
27 5 5
27 31 5
15 18 5
30 69 5
85 5 5
48 101 5
5 17 4
30 33 4
33 30 4
101 48 4
15 12 3
19 5 3
5 21 3
41 30 3
30 21 3
18 15 3
58 5 3
5 58 3
15 11 2
5 19 2
5 14 2
5 28 2
28 12 2
30 12 2
12 30 2
5 27 2
15 31 2
44 45 2
45 46 2
47 18 2
53 5 2
56 5 2
5 73 2
33 18 2
18 33 2
12 33 2
18 21 2
5 90 2
77 55 2
1 2 1
2 3 1
3 2 1
2 4 1
4 5 1
5 6 1
6 7 1
7 8 1
8 9 1
9 10 1
10 8 1
8 11 1
11 10 1
10 12 1
12 13 1
13 14 1
14 15 1
15 16 1
16 17 1
11 5 1
15 19 1
15 20 1
20 5 1
5 11 1
11 15 1
11 9 1
9 15 1
14 12 1
12 21 1
21 15 1
15 22 1
22 15 1
15 23 1
23 21 1
21 24 1
24 5 1
5 25 1
25 15 1
15 9 1
9 13 1
13 5 1
15 27 1
15 29 1
29 5 1
5 31 1
31 5 1
12 27 1
27 21 1
27 15 1
15 32 1
32 2 1
2 30 1
30 34 1
34 30 1
30 35 1
35 30 1
30 36 1
36 30 1
18 30 1
30 37 1
37 38 1
38 18 1
18 39 1
39 30 1
30 40 1
40 41 1
30 42 1
42 30 1
21 43 1
43 41 1
41 21 1
21 44 1
46 44 1
46 47 1
18 45 1
45 48 1
48 47 1
18 47 1
47 46 1
46 45 1
45 18 1
18 44 1
44 49 1
49 18 1
18 43 1
43 18 1
5 50 1
50 5 1
14 5 1
5 51 1
51 5 1
5 2 1
2 5 1
5 52 1
52 5 1
30 15 1
30 53 1
30 54 1
54 55 1
55 35 1
35 55 1
5 56 1
5 57 1
57 58 1
58 18 1
12 59 1
59 15 1
15 21 1
21 60 1
60 12 1
12 61 1
61 62 1
62 63 1
63 41 1
30 64 1
64 30 1
30 65 1
65 66 1
66 5 1
5 67 1
67 5 1
5 68 1
68 30 1
5 69 1
30 27 1
27 18 1
18 56 1
56 18 1
15 70 1
70 15 1
5 71 1
71 72 1
72 5 1
73 30 1
30 74 1
74 30 1
73 75 1
75 5 1
5 76 1
76 5 1
30 73 1
73 41 1
30 46 1
46 21 1
21 46 1
46 12 1
12 78 1
78 5 1
33 12 1
55 21 1
21 55 1
55 79 1
79 5 1
5 79 1
79 15 1
21 80 1
80 21 1
5 81 1
81 18 1
18 27 1
27 28 1
28 27 1
12 82 1
82 33 1
5 83 1
83 45 1
5 84 1
84 40 1
40 5 1
85 33 1
5 86 1
86 33 1
21 87 1
87 5 1
5 88 1
88 5 1
5 89 1
89 5 1
90 80 1
80 91 1
91 92 1
92 90 1
90 93 1
93 94 1
94 95 1
95 96 1
96 5 1
90 5 1
18 97 1
97 56 1
33 90 1
90 53 1
33 85 1
85 75 1
75 18 1
18 53 1
53 33 1
33 77 1
55 98 1
98 99 1
99 55 1
55 20 1
20 55 1
55 100 1
100 48 1
101 5 1
21 77 1
