19 3 53
3 19 48
1 3 15
3 4 15
3 8 13
3 1 11
2 3 10
8 3 10
4 1 9
17 16 9
4 3 8
4 2 8
16 17 8
3 2 8
1 4 7
5 4 7
16 3 7
3 17 7
3 5 6
17 3 6
4 5 5
3 16 4
22 23 4
3 9 4
25 3 4
3 25 4
25 19 4
9 34 4
34 9 4
19 41 4
5 3 3
5 1 3
2 5 3
2 4 3
23 22 3
9 3 3
26 25 3
41 19 3
1 2 2
2 1 2
3 11 2
1 5 2
15 16 2
5 18 2
18 17 2
17 15 2
18 3 2
3 20 2
20 3 2
8 5 2
21 24 2
23 3 2
4 19 2
15 3 2
3 23 2
9 19 2
17 19 2
3 26 2
3 40 2
40 8 2
2 6 1
6 3 1
3 6 1
6 7 1
7 3 1
8 9 1
9 10 1
10 3 1
11 3 1
5 12 1
12 1 1
1 13 1
13 14 1
14 2 1
5 15 1
3 18 1
19 2 1
5 17 1
15 17 1
17 21 1
21 18 1
18 22 1
23 16 1
16 21 1
21 5 1
5 21 1
24 21 1
24 18 1
17 25 1
25 26 1
26 3 1
11 23 1
23 27 1
27 28 1
28 29 1
29 30 1
30 9 1
9 8 1
8 16 1
16 8 1
8 23 1
9 17 1
17 31 1
31 15 1
23 4 1
2 32 1
32 5 1
5 33 1
33 25 1
19 8 1
8 1 1
4 9 1
19 35 1
35 36 1
36 35 1
35 9 1
9 35 1
35 37 1
37 9 1
9 37 1
37 29 1
29 9 1
9 29 1
29 3 1
19 25 1
8 33 1
33 9 1
1 38 1
38 1 1
3 15 1
1 39 1
39 19 1
19 17 1
16 26 1
25 17 1
8 40 1
40 16 1
