7 29 42
29 7 40
3 20 18
20 3 17
1 3 15
13 7 13
14 1 13
3 1 12
7 13 12
7 34 12
34 7 12
1 14 11
1 2 7
2 1 7
7 8 7
8 7 7
20 29 7
13 14 6
14 13 6
18 1 6
1 18 6
28 29 6
29 20 6
7 15 5
15 7 5
29 28 5
14 7 4
7 14 3
1 21 3
21 1 3
26 7 3
5 6 2
9 1 2
1 10 2
10 1 2
11 1 2
10 12 2
7 19 2
22 1 2
1 23 2
7 26 2
29 31 2
7 33 2
33 7 2
36 7 2
3 2 1
1 4 1
4 3 1
3 5 1
6 5 1
6 7 1
7 9 1
1 11 1
2 10 1
12 10 1
12 1 1
1 9 1
1 13 1
7 16 1
16 14 1
1 17 1
17 18 1
18 14 1
19 7 1
19 14 1
20 1 1
21 22 1
23 24 1
24 21 1
3 25 1
25 11 1
1 22 1
23 1 1
1 26 1
7 1 1
1 7 1
7 20 1
20 27 1
27 28 1
29 30 1
30 29 1
31 30 1
30 32 1
32 29 1
31 28 1
28 7 1
34 20 1
29 34 1
29 35 1
35 1 1
1 35 1
35 7 1
29 36 1
7 36 1
7 37 1
