3 6 24
6 3 23
25 3 6
3 25 5
31 3 5
6 8 4
24 3 4
8 6 3
8 3 3
6 24 3
6 31 3
25 6 3
21 6 2
35 6 2
6 38 2
38 6 2
3 24 2
3 12 2
6 25 2
1 2 1
2 3 1
3 4 1
4 3 1
3 5 1
5 3 1
3 7 1
7 6 1
6 9 1
9 10 1
10 3 1
6 11 1
11 12 1
12 6 1
6 13 1
13 6 1
3 14 1
14 15 1
15 16 1
16 3 1
6 17 1
17 18 1
18 8 1
6 19 1
19 6 1
3 20 1
20 21 1
3 22 1
22 3 1
6 23 1
23 6 1
3 26 1
26 6 1
3 27 1
27 19 1
19 3 1
6 28 1
28 3 1
6 29 1
29 4 1
4 6 1
6 30 1
30 21 1
3 32 1
32 33 1
33 6 1
3 34 1
34 3 1
3 35 1
24 36 1
36 6 1
6 37 1
37 6 1
6 35 1
6 39 1
39 3 1
3 40 1
40 6 1
3 41 1
41 6 1
3 42 1
42 43 1
43 3 1
3 44 1
44 38 1
38 3 1
6 45 1
45 6 1
3 46 1
46 8 1
8 47 1
47 3 1
3 31 1
3 48 1
48 49 1
49 6 1
6 50 1
50 25 1
3 51 1
51 52 1
52 53 1
53 3 1
3 54 1
54 55 1
55 56 1
56 3 1
3 57 1
57 24 1
24 58 1
58 34 1
34 4 1
4 59 1
59 3 1
3 60 1
60 3 1
3 61 1
61 3 1
3 62 1
62 63 1
63 3 1
3 64 1
64 3 1
3 65 1
65 66 1
66 3 1
3 67 1
67 25 1
25 8 1
3 68 1
68 3 1
3 69 1
69 3 1
24 50 1
50 31 1
12 24 1
3 70 1
70 71 1
71 25 1
12 72 1
72 73 1
73 6 1
3 74 1
74 12 1
12 75 1
75 3 1
