12 16 28
16 12 26
31 12 20
12 31 19
12 19 14
19 12 12
19 31 10
12 20 9
19 5 9
20 12 8
31 19 8
5 19 8
11 12 6
12 11 5
12 14 4
14 12 4
16 19 4
7 20 4
19 26 4
26 19 4
19 20 4
20 19 4
16 30 4
30 12 4
7 12 3
19 16 3
31 16 3
16 31 3
12 13 2
13 11 2
12 7 2
16 7 2
20 23 2
12 25 2
19 7 2
7 19 2
28 29 2
30 16 2
12 30 2
5 12 2
20 5 2
1 2 1
2 3 1
3 4 1
4 5 1
5 6 1
6 3 1
3 7 1
7 8 1
8 9 1
9 10 1
10 8 1
8 11 1
11 7 1
11 13 1
13 12 1
12 15 1
15 11 1
16 17 1
17 18 1
18 17 1
17 16 1
20 7 1
20 21 1
21 22 1
22 20 1
23 24 1
24 19 1
25 16 1
19 27 1
27 28 1
29 26 1
26 28 1
29 19 1
25 12 1
11 16 1
30 7 1
7 16 1
20 30 1
19 30 1
30 31 1
16 32 1
32 31 1
5 31 1
31 33 1
33 12 1
31 20 1
20 34 1
34 20 1
31 7 1
7 35 1
35 20 1
23 21 1
21 7 1
31 36 1
36 30 1
30 20 1
20 37 1
37 12 1
12 38 1
38 37 1
37 39 1
39 31 1
20 40 1
40 41 1
41 12 1
12 42 1
42 31 1
31 42 1
42 43 1
43 16 1
31 44 1
44 16 1
19 10 1
10 16 1
16 45 1
45 19 1
