18 11 45
11 18 45
25 11 30
11 25 29
3 21 22
21 3 22
6 19 17
19 6 17
8 11 16
11 35 16
10 9 15
11 8 15
11 3 15
35 11 15
3 11 14
9 2 14
2 9 14
13 14 12
9 10 11
9 11 10
18 3 10
3 18 10
11 9 10
2 3 9
10 2 9
9 19 9
33 3 9
11 2 8
2 10 8
7 6 8
7 19 8
3 2 7
7 5 7
5 7 7
8 12 7
14 13 7
16 17 7
4 7 7
6 2 7
2 21 7
19 7 7
19 9 7
3 33 7
6 7 6
11 10 6
10 11 6
12 8 6
17 16 6
19 14 6
10 3 6
2 11 6
28 17 6
24 13 6
7 9 5
7 4 5
14 19 5
3 10 5
19 2 5
21 9 5
9 21 5
21 2 5
2 6 5
17 28 5
18 35 5
35 18 5
14 4 4
2 18 4
18 9 4
8 13 4
21 10 4
18 21 4
23 7 4
25 18 4
9 18 4
13 24 4
11 15 4
3 34 4
18 25 4
4 5 3
5 6 3
3 17 3
2 19 3
14 8 3
13 15 3
15 13 3
21 18 3
7 23 3
13 7 3
19 25 3
4 14 3
13 8 3
6 13 3
9 7 3
7 2 3
2 7 3
13 6 3
29 14 3
14 30 3
15 11 3
34 3 3
11 17 3
5 4 2
6 8 2
12 13 2
17 18 2
4 20 2
9 3 2
14 6 2
3 8 2
8 14 2
14 7 2
11 6 2
10 21 2
19 13 2
17 21 2
7 13 2
25 19 2
10 25 2
25 9 2
9 25 2
25 21 2
21 25 2
9 14 2
25 3 2
3 25 2
21 11 2
6 9 2
8 15 2
7 10 2
7 24 2
13 4 2
6 24 2
14 29 2
30 14 2
19 10 2
19 11 2
18 19 2
17 11 2
9 35 2
1 2 1
3 4 1
4 6 1
6 4 1
6 5 1
8 5 1
9 8 1
14 15 1
15 14 1
14 16 1
18 6 1
6 11 1
11 7 1
7 14 1
20 4 1
20 7 1
7 20 1
20 15 1
15 7 1
4 2 1
2 17 1
17 9 1
17 3 1
3 9 1
17 10 1
10 18 1
8 9 1
10 19 1
19 12 1
12 19 1
14 10 1
21 17 1
21 20 1
20 14 1
14 22 1
22 6 1
6 23 1
6 3 1
3 19 1
19 24 1
24 19 1
9 26 1
26 27 1
27 26 1
26 19 1
25 10 1
18 2 1
2 25 1
25 2 1
14 11 1
10 4 1
4 24 1
24 4 1
7 12 1
13 2 1
25 8 1
12 21 1
21 6 1
11 21 1
9 6 1
6 10 1
10 6 1
2 28 1
18 13 1
15 19 1
6 14 1
13 11 1
3 13 1
13 10 1
10 7 1
9 13 1
24 7 1
24 14 1
30 29 1
14 3 1
18 31 1
31 18 1
4 13 1
4 19 1
14 12 1
11 32 1
32 11 1
15 8 1
15 33 1
35 4 1
17 7 1
34 33 1
3 36 1
36 37 1
37 11 1
11 19 1
19 22 1
22 9 1
2 4 1
18 10 1
8 16 1
16 35 1
35 38 1
38 39 1
39 9 1
9 39 1
39 10 1
35 2 1
2 35 1
35 7 1
7 11 1
35 9 1
9 40 1
