20 19 21
19 20 21
9 42 21
42 9 19
22 20 18
20 22 18
9 16 18
8 20 17
6 28 17
8 25 17
16 9 16
28 6 16
25 8 16
11 3 15
5 11 15
10 14 14
20 8 14
12 30 14
30 12 14
3 11 13
25 31 13
14 10 12
7 20 12
31 25 12
8 9 12
19 22 12
7 8 11
22 19 11
8 7 10
20 7 10
9 8 10
12 25 10
11 5 9
25 12 9
32 9 9
9 32 9
7 13 8
13 7 8
14 8 8
3 5 7
23 25 7
27 10 7
10 27 7
8 14 7
8 12 7
12 8 7
27 14 7
12 13 6
5 24 6
25 24 6
29 5 6
14 27 6
52 8 6
5 3 5
6 7 5
7 9 5
5 10 5
13 12 5
18 19 5
19 18 5
7 14 5
14 6 5
5 29 5
11 33 5
32 34 5
14 37 5
20 12 5
12 20 5
30 41 5
27 28 5
6 46 5
8 52 5
7 6 4
20 13 4
22 8 4
24 5 4
6 23 4
8 6 4
6 8 4
8 13 4
27 5 4
33 11 4
34 32 4
30 9 4
37 14 4
13 41 4
18 7 4
41 30 4
18 32 4
32 18 4
25 26 4
28 27 4
46 6 4
32 41 4
9 7 3
8 21 3
21 7 3
23 24 3
24 11 3
24 23 3
10 3 3
25 23 3
5 27 3
27 23 3
23 27 3
6 14 3
14 7 3
13 32 3
34 35 3
9 30 3
9 25 3
23 14 3
10 23 3
25 37 3
37 5 3
38 10 3
13 18 3
7 18 3
3 24 3
9 12 3
5 25 3
26 25 3
14 3 3
3 25 3
12 9 3
24 26 3
18 13 3
6 49 3
19 7 3
28 50 3
50 28 3
41 32 3
3 6 2
10 11 2
21 8 2
7 22 2
11 10 2
23 26 2
6 11 2
11 25 2
16 8 2
13 8 2
27 11 2
11 27 2
10 6 2
6 27 2
8 10 2
23 6 2
6 25 2
25 11 2
11 7 2
7 5 2
7 30 2
13 25 2
35 34 2
11 36 2
36 11 2
33 5 2
11 26 2
26 5 2
33 13 2
10 25 2
10 38 2
37 40 2
40 14 2
27 25 2
7 21 2
24 25 2
14 13 2
24 13 2
41 13 2
41 20 2
20 9 2
19 9 2
9 19 2
5 14 2
14 23 2
25 14 2
14 25 2
41 12 2
25 5 2
14 5 2
3 10 2
24 14 2
26 10 2
26 27 2
42 20 2
24 27 2
25 30 2
8 24 2
23 38 2
25 10 2
9 20 2
20 41 2
49 6 2
13 19 2
28 31 2
31 12 2
41 18 2
52 10 2
1 2 1
2 3 1
3 4 1
4 3 1
6 5 1
3 12 1
13 10 1
10 15 1
15 16 1
16 17 1
17 18 1
18 5 1
10 5 1
11 20 1
21 22 1
13 22 1
22 21 1
20 23 1
24 6 1
23 5 1
5 23 1
26 6 1
23 9 1
8 3 1
3 8 1
13 9 1
13 27 1
27 22 1
25 6 1
11 24 1
24 29 1
30 13 1
31 23 1
23 31 1
31 13 1
13 21 1
20 21 1
21 20 1
20 14 1
14 20 1
20 17 1
17 13 1
32 13 1
32 8 1
12 32 1
32 11 1
11 13 1
35 32 1
34 13 1
13 34 1
34 11 1
11 30 1
30 16 1
16 30 1
12 33 1
26 33 1
33 26 1
5 33 1
13 23 1
37 10 1
5 38 1
25 28 1
28 26 1
26 28 1
28 10 1
10 7 1
13 39 1
39 7 1
30 7 1
13 20 1
20 30 1
30 20 1
11 37 1
14 40 1
40 37 1
37 6 1
25 33 1
21 13 1
25 7 1
16 7 1
7 24 1
25 21 1
21 25 1
42 23 1
27 3 1
24 41 1
20 18 1
7 19 1
12 41 1
41 5 1
25 41 1
30 8 1
9 43 1
43 9 1
8 16 1
8 43 1
43 8 1
11 14 1
14 44 1
44 18 1
18 12 1
12 19 1
19 8 1
42 6 1
26 14 1
25 3 1
6 3 1
24 10 1
5 37 1
37 25 1
25 20 1
19 21 1
21 19 1
8 32 1
32 20 1
20 26 1
27 26 1
28 12 1
25 42 1
20 42 1
20 27 1
27 24 1
14 45 1
45 27 1
24 8 1
27 46 1
6 47 1
47 6 1
46 14 1
38 23 1
10 45 1
45 3 1
10 24 1
3 14 1
14 48 1
48 6 1
46 8 1
41 24 1
24 7 1
13 24 1
18 6 1
49 46 1
46 49 1
49 20 1
22 41 1
41 19 1
20 28 1
12 31 1
30 22 1
25 9 1
9 23 1
5 51 1
51 3 1
11 6 1
31 3 1
3 27 1
38 5 1
10 37 1
37 38 1
38 37 1
14 30 1
12 7 1
13 14 1
28 3 1
3 28 1
7 41 1
41 7 1
26 24 1
26 11 1
14 52 1
10 52 1
22 32 1
41 9 1
9 41 1
41 52 1
18 8 1
20 34 1
32 12 1
10 53 1
