33 25 66
25 33 63
6 22 36
22 6 36
9 6 29
6 17 29
6 9 28
17 6 28
33 36 10
33 6 9
6 33 9
36 33 7
17 25 5
3 6 4
30 25 4
25 31 4
36 25 4
36 38 4
6 40 4
40 6 4
25 17 4
1 4 3
6 3 3
6 20 3
25 26 3
26 25 3
25 30 3
31 25 3
31 33 3
25 36 3
38 33 3
4 1 2
1 3 2
3 1 2
4 6 2
6 1 2
4 7 2
11 6 2
14 6 2
6 15 2
15 6 2
5 6 2
6 5 2
6 18 2
18 9 2
21 6 2
31 30 2
30 31 2
32 33 2
33 34 2
34 33 2
33 30 2
30 33 2
33 32 2
32 34 2
34 25 2
33 31 2
25 6 2
17 33 2
24 9 2
52 17 2
6 52 2
1 2 1
2 3 1
3 4 1
1 5 1
5 4 1
1 6 1
6 4 1
7 6 1
6 7 1
7 1 1
1 8 1
8 9 1
6 10 1
10 9 1
9 11 1
6 12 1
12 6 1
6 13 1
13 6 1
6 14 1
14 15 1
15 14 1
6 16 1
16 6 1
6 11 1
17 5 1
18 6 1
5 18 1
18 3 1
6 19 1
19 6 1
20 21 1
6 21 1
20 6 1
20 18 1
22 10 1
10 22 1
6 23 1
23 14 1
6 24 1
24 6 1
9 17 1
25 27 1
27 25 1
25 28 1
28 25 1
25 29 1
29 30 1
31 32 1
33 35 1
35 33 1
25 32 1
25 34 1
34 5 1
5 31 1
25 9 1
9 33 1
6 37 1
37 36 1
33 38 1
38 39 1
39 33 1
38 6 1
33 17 1
6 41 1
41 6 1
25 4 1
4 38 1
38 1 1
7 36 1
17 42 1
42 43 1
43 1 1
1 44 1
44 45 1
45 9 1
9 45 1
45 24 1
9 24 1
9 46 1
46 17 1
6 47 1
47 6 1
6 48 1
48 49 1
49 6 1
6 50 1
50 6 1
9 51 1
51 42 1
42 51 1
51 52 1
52 32 1
32 17 1
17 52 1
52 6 1
17 53 1
53 17 1
