25 17 52
17 25 52
23 26 32
26 23 30
44 26 25
26 44 22
17 53 15
53 17 15
44 23 12
23 44 11
26 30 10
26 27 9
27 26 9
23 20 8
20 23 7
30 26 7
10 18 6
18 10 6
34 23 5
23 34 5
17 43 5
43 17 5
26 37 4
37 26 4
49 44 4
49 26 4
26 49 4
10 12 3
13 10 3
22 20 3
26 38 3
42 41 3
46 44 3
9 10 2
12 10 2
10 13 2
10 16 2
20 22 2
26 28 2
28 26 2
31 26 2
26 10 2
10 25 2
27 32 2
32 27 2
26 34 2
34 26 2
35 26 2
26 35 2
38 26 2
40 41 2
41 40 2
41 43 2
26 45 2
44 46 2
26 47 2
23 55 2
30 23 2
35 23 2
10 23 2
44 49 2
44 27 2
27 44 2
1 2 1
2 3 1
3 4 1
4 5 1
5 6 1
6 7 1
7 8 1
8 9 1
10 11 1
11 12 1
12 9 1
12 13 1
13 14 1
14 10 1
10 9 1
9 14 1
14 13 1
10 15 1
15 10 1
16 17 1
17 10 1
10 19 1
19 20 1
20 21 1
21 22 1
20 24 1
24 23 1
20 25 1
25 26 1
26 29 1
29 26 1
30 31 1
26 31 1
25 27 1
27 33 1
33 23 1
30 35 1
35 36 1
36 26 1
38 34 1
23 24 1
24 10 1
10 39 1
39 40 1
41 42 1
40 42 1
43 40 1
43 42 1
40 43 1
43 10 1
16 10 1
10 44 1
45 26 1
45 44 1
26 46 1
44 34 1
34 44 1
25 37 1
44 30 1
30 44 1
47 26 1
47 33 1
33 47 1
47 48 1
48 49 1
44 50 1
50 44 1
23 51 1
51 52 1
52 17 1
17 54 1
54 17 1
17 23 1
55 23 1
55 26 1
37 10 1
10 26 1
26 55 1
55 35 1
23 35 1
34 10 1
23 10 1
10 55 1
55 10 1
34 30 1
23 37 1
37 49 1
49 23 1
23 49 1
23 30 1
30 34 1
44 6 1
