2 12 51
12 2 48
2 17 40
17 2 39
2 7 28
7 2 26
2 22 15
22 2 13
2 25 10
25 2 10
12 17 8
11 2 6
17 12 6
23 2 6
2 23 6
2 11 5
21 2 5
22 12 5
17 29 5
29 2 5
29 17 5
2 21 4
12 22 4
2 29 4
2 14 3
19 12 3
2 10 2
10 2 2
14 2 2
12 19 2
22 23 2
23 22 2
2 26 2
26 2 2
2 38 2
38 2 2
1 2 1
2 3 1
3 4 1
4 2 1
2 5 1
5 2 1
2 6 1
6 2 1
7 8 1
8 2 1
7 9 1
9 2 1
12 13 1
13 12 1
12 11 1
2 15 1
15 2 1
12 16 1
16 2 1
7 18 1
18 2 1
2 19 1
14 12 1
12 20 1
20 12 1
12 21 1
23 12 1
12 23 1
22 24 1
24 12 1
17 7 1
2 27 1
27 2 1
2 28 1
28 2 1
2 30 1
30 2 1
17 31 1
31 29 1
17 32 1
32 29 1
29 33 1
33 17 1
17 34 1
34 2 1
12 35 1
35 2 1
2 36 1
36 37 1
37 2 1
2 39 1
39 2 1
2 40 1
40 2 1
12 41 1
41 42 1
