4 15 44
15 4 44
12 3 27
3 12 26
4 26 22
13 12 20
26 4 19
12 13 17
3 4 13
26 15 13
4 3 12
4 12 12
15 26 12
12 4 10
4 22 7
4 30 7
31 4 7
4 31 7
3 15 6
30 4 6
15 3 5
22 4 5
4 13 5
13 4 5
37 4 4
12 41 4
41 12 4
5 6 3
6 5 3
3 13 3
30 26 3
11 12 2
26 12 2
12 26 2
26 3 2
12 15 2
26 30 2
12 27 2
4 37 2
15 37 2
27 12 2
12 30 2
1 2 1
2 3 1
3 5 1
5 4 1
4 5 1
5 7 1
7 3 1
3 8 1
8 3 1
3 9 1
9 3 1
3 10 1
10 3 1
3 11 1
12 11 1
12 14 1
14 4 1
3 16 1
16 3 1
12 16 1
16 4 1
15 17 1
17 15 1
4 18 1
18 19 1
19 4 1
4 19 1
19 3 1
3 20 1
20 21 1
21 15 1
15 22 1
22 23 1
23 4 1
15 24 1
24 4 1
22 25 1
25 22 1
22 15 1
26 27 1
27 13 1
13 3 1
13 28 1
28 12 1
12 29 1
29 26 1
22 27 1
27 30 1
30 31 1
31 30 1
26 22 1
22 26 1
26 31 1
4 32 1
32 4 1
4 33 1
33 4 1
31 3 1
3 34 1
34 3 1
27 4 1
4 35 1
35 36 1
36 4 1
30 27 1
27 37 1
4 38 1
38 39 1
39 4 1
15 40 1
40 4 1
4 17 1
17 4 1
37 15 1
15 27 1
27 3 1
3 27 1
30 12 1
30 13 1
13 42 1
42 13 1
13 39 1
39 12 1
12 39 1
39 13 1
12 43 1
43 12 1
