3 4 15
15 41 14
4 3 13
20 15 13
41 15 13
9 3 12
3 5 11
3 9 11
15 20 11
5 3 10
14 15 8
15 39 8
15 14 7
23 15 7
15 23 7
33 32 7
20 35 7
35 20 6
15 30 6
17 18 5
15 33 5
14 33 5
39 15 5
30 15 5
41 33 5
33 41 5
33 15 5
20 41 5
23 24 4
20 25 4
33 14 4
14 32 4
32 33 4
39 33 4
14 41 4
41 20 4
30 20 4
30 64 4
9 6 3
18 17 3
24 20 3
25 23 3
4 26 3
32 15 3
15 36 3
26 37 3
32 39 3
33 30 3
39 14 3
44 42 3
15 2 3
2 15 3
39 41 3
39 20 3
20 30 3
64 30 3
2 3 2
5 6 2
6 5 2
6 9 2
22 3 2
3 22 2
23 20 2
26 4 2
15 32 2
32 14 2
36 15 2
37 26 2
37 38 2
38 37 2
33 39 2
30 14 2
41 14 2
42 14 2
41 43 2
49 19 2
19 49 2
54 55 2
55 54 2
18 50 2
50 18 2
41 39 2
20 39 2
65 66 2
1 2 1
5 7 1
7 5 1
5 8 1
8 9 1
9 10 1
10 9 1
3 11 1
11 3 1
3 12 1
12 9 1
9 5 1
5 9 1
5 13 1
13 14 1
14 16 1
16 17 1
17 19 1
19 17 1
18 20 1
20 21 1
21 15 1
20 3 1
4 22 1
22 4 1
4 23 1
15 3 1
3 23 1
24 23 1
25 15 1
25 24 1
24 25 1
15 26 1
26 24 1
24 15 1
15 27 1
27 23 1
23 4 1
26 28 1
28 4 1
4 15 1
20 29 1
29 30 1
30 31 1
31 14 1
32 34 1
34 32 1
14 3 1
3 32 1
32 5 1
6 33 1
33 31 1
31 33 1
32 20 1
35 15 1
36 33 1
14 26 1
37 6 1
6 14 1
39 40 1
40 39 1
14 39 1
41 42 1
43 42 1
41 44 1
42 43 1
43 44 1
42 44 1
42 15 1
43 33 1
41 2 1
2 33 1
33 42 1
42 33 1
15 45 1
45 14 1
14 46 1
46 15 1
14 45 1
45 41 1
15 47 1
47 5 1
5 47 1
47 48 1
48 49 1
49 50 1
50 4 1
4 2 1
4 35 1
35 5 1
5 14 1
14 20 1
20 33 1
33 20 1
20 14 1
33 51 1
51 14 1
14 52 1
52 50 1
50 33 1
33 50 1
50 53 1
53 2 1
2 54 1
54 15 1
15 56 1
56 54 1
54 57 1
57 15 1
15 57 1
57 20 1
15 54 1
54 20 1
20 18 1
18 19 1
19 18 1
18 33 1
33 18 1
18 15 1
20 58 1
58 20 1
41 59 1
59 15 1
41 60 1
60 41 1
41 61 1
61 41 1
15 62 1
62 17 1
18 47 1
47 3 1
3 15 1
15 63 1
63 64 1
64 20 1
30 65 1
66 67 1
67 68 1
68 65 1
66 65 1
65 20 1
20 69 1
69 2 1
2 30 1
64 70 1
70 2 1
2 64 1
64 2 1
15 64 1
64 15 1
