17 8 21
8 5 20
8 17 18
5 8 17
8 11 11
11 8 11
8 43 10
4 7 9
7 4 8
14 29 8
8 29 8
29 8 8
17 28 7
11 29 7
43 8 7
4 5 6
5 4 6
8 10 6
14 8 6
5 17 6
18 19 6
19 18 6
28 17 6
29 11 6
29 14 6
15 14 5
45 8 5
10 8 4
8 14 4
17 5 4
14 11 4
8 19 4
17 41 4
43 17 4
7 5 3
4 8 3
13 8 3
19 21 3
21 19 3
11 14 3
29 15 3
14 15 3
8 32 3
14 12 3
19 14 3
19 8 3
46 8 3
58 4 3
8 4 3
6 4 2
5 7 2
8 12 2
12 8 2
8 13 2
8 15 2
19 17 2
8 27 2
27 8 2
10 14 2
11 17 2
15 11 2
11 15 2
12 14 2
17 19 2
19 40 2
41 8 2
41 17 2
14 19 2
17 43 2
8 45 2
8 49 2
49 8 2
17 32 2
32 2 2
51 17 2
17 52 2
8 53 2
53 8 2
57 4 2
52 17 2
8 52 2
4 19 2
52 58 2
8 21 2
21 11 2
1 2 1
2 3 1
3 4 1
5 6 1
8 9 1
9 8 1
10 11 1
15 16 1
16 17 1
8 18 1
18 20 1
20 19 1
17 14 1
8 22 1
22 23 1
23 10 1
10 24 1
24 10 1
10 17 1
17 25 1
25 17 1
17 26 1
26 8 1
14 10 1
17 27 1
27 17 1
28 22 1
22 29 1
29 22 1
22 14 1
17 30 1
30 29 1
29 31 1
31 8 1
14 13 1
13 14 1
32 14 1
12 32 1
32 33 1
33 34 1
34 35 1
35 36 1
36 37 1
37 19 1
19 38 1
38 18 1
18 39 1
39 13 1
19 12 1
12 19 1
40 17 1
14 18 1
18 14 1
14 42 1
42 17 1
40 19 1
17 44 1
44 45 1
45 43 1
43 45 1
45 17 1
43 46 1
8 47 1
47 46 1
8 48 1
48 8 1
2 43 1
5 32 1
32 50 1
50 8 1
8 50 1
50 17 1
2 17 1
17 2 1
2 32 1
32 46 1
32 45 1
19 10 1
10 51 1
52 8 1
8 44 1
44 8 1
8 40 1
40 54 1
54 55 1
55 40 1
40 43 1
43 56 1
56 8 1
15 40 1
40 8 1
15 57 1
4 57 1
4 6 1
4 51 1
17 51 1
51 52 1
17 4 1
4 58 1
4 45 1
52 45 1
32 8 1
43 4 1
19 4 1
4 59 1
59 52 1
52 4 1
5 52 1
52 5 1
11 52 1
4 52 1
4 60 1
60 8 1
8 61 1
61 8 1
8 62 1
62 21 1
21 8 1
4 21 1
21 45 1
45 21 1
21 62 1
62 8 1
52 63 1
