22 13 26
13 22 24
13 15 8
15 13 7
45 13 5
13 14 4
13 45 4
6 13 3
14 13 3
13 17 3
29 61 3
75 13 3
93 22 3
6 93 3
13 19 2
19 13 2
13 26 2
37 38 2
38 15 2
15 22 2
22 39 2
45 50 2
27 50 2
27 19 2
25 15 2
61 29 2
13 75 2
78 13 2
17 13 2
92 93 2
22 93 2
13 6 2
93 13 2
93 6 2
34 13 2
1 2 1
2 3 1
3 4 1
4 5 1
5 6 1
6 7 1
7 8 1
8 6 1
6 9 1
9 6 1
6 10 1
10 11 1
11 12 1
12 6 1
13 16 1
16 13 1
17 18 1
18 15 1
13 20 1
20 13 1
13 21 1
21 13 1
22 23 1
23 22 1
22 24 1
24 25 1
25 13 1
26 13 1
26 27 1
27 28 1
28 22 1
22 29 1
29 30 1
30 29 1
29 31 1
31 32 1
32 33 1
33 34 1
34 14 1
14 22 1
13 35 1
35 13 1
13 36 1
36 14 1
14 37 1
39 22 1
22 40 1
40 41 1
41 39 1
39 42 1
42 22 1
22 43 1
43 22 1
39 44 1
44 45 1
45 46 1
46 45 1
45 15 1
15 44 1
44 13 1
13 47 1
47 13 1
15 45 1
45 48 1
48 49 1
49 45 1
45 27 1
27 45 1
50 45 1
50 15 1
15 50 1
50 27 1
50 37 1
15 28 1
28 45 1
45 28 1
28 14 1
14 27 1
27 14 1
14 51 1
51 38 1
38 27 1
27 13 1
13 52 1
52 13 1
13 27 1
50 53 1
53 54 1
54 55 1
55 56 1
56 25 1
25 27 1
19 27 1
19 57 1
57 19 1
19 58 1
58 59 1
59 22 1
22 60 1
60 25 1
15 58 1
58 13 1
13 61 1
61 19 1
19 29 1
61 62 1
62 22 1
13 63 1
63 64 1
64 13 1
22 65 1
65 66 1
66 67 1
67 68 1
68 22 1
22 69 1
69 22 1
22 70 1
70 22 1
22 71 1
71 22 1
13 72 1
72 13 1
13 64 1
64 73 1
73 45 1
13 74 1
74 75 1
13 76 1
76 77 1
77 78 1
13 78 1
22 79 1
79 13 1
13 80 1
80 81 1
81 82 1
82 22 1
22 83 1
83 13 1
13 84 1
84 13 1
13 85 1
85 14 1
14 86 1
86 87 1
87 34 1
34 22 1
22 88 1
88 89 1
89 88 1
88 90 1
90 13 1
15 25 1
13 91 1
91 22 1
13 92 1
93 92 1
93 94 1
94 93 1
13 93 1
93 95 1
95 6 1
13 96 1
96 93 1
14 97 1
97 13 1
22 34 1
13 34 1
34 47 1
47 34 1
13 98 1
98 99 1
