10 3 23
3 10 22
3 12 13
12 3 10
3 24 8
24 3 8
3 9 7
9 3 7
22 3 7
3 11 6
11 3 6
3 28 6
3 22 5
28 3 5
9 10 4
7 3 3
3 7 3
10 9 3
3 16 3
16 3 3
2 3 2
3 2 2
12 11 2
13 3 2
3 18 2
18 3 2
3 20 2
1 2 1
3 4 1
4 2 1
2 5 1
5 3 1
2 6 1
6 7 1
3 6 1
6 3 1
7 8 1
8 9 1
9 8 1
8 3 1
12 13 1
3 13 1
3 14 1
14 3 1
3 15 1
15 3 1
3 17 1
17 3 1
3 19 1
19 3 1
20 21 1
21 3 1
3 21 1
21 20 1
20 22 1
11 22 1
3 23 1
23 3 1
3 25 1
25 24 1
24 26 1
26 3 1
24 27 1
27 24 1
28 9 1
3 29 1
29 3 1
20 3 1
11 30 1
30 3 1
3 31 1
31 3 1
