7 14 37
14 7 33
11 7 31
7 11 27
13 14 24
14 13 23
15 7 20
7 15 19
12 11 18
15 14 18
14 15 16
11 12 15
13 15 15
15 13 14
7 12 9
14 21 9
21 14 9
12 7 8
7 13 8
13 7 8
7 10 7
15 2 6
2 15 6
15 21 6
21 15 6
2 3 5
10 7 5
27 14 5
3 2 4
7 8 4
2 13 4
8 7 4
14 27 4
2 4 3
4 2 3
14 12 3
13 2 3
18 15 3
14 24 3
24 14 3
14 28 3
28 14 3
2 14 3
16 7 3
13 18 3
18 13 3
8 9 2
9 8 2
8 10 2
10 5 2
5 7 2
14 5 2
5 15 2
15 18 2
19 20 2
23 13 2
14 16 2
15 5 2
11 14 2
14 11 2
14 2 2
13 16 2
1 2 1
3 5 1
5 6 1
6 7 1
9 7 1
10 9 1
5 11 1
7 5 1
5 13 1
7 16 1
16 13 1
13 17 1
17 2 1
7 18 1
14 19 1
20 21 1
21 19 1
20 22 1
22 11 1
7 23 1
13 23 1
16 15 1
15 8 1
5 12 1
12 13 1
12 14 1
14 4 1
4 25 1
25 26 1
26 15 1
13 27 1
11 2 1
14 17 1
17 7 1
10 8 1
14 29 1
29 14 1
7 30 1
30 7 1
7 19 1
19 13 1
7 17 1
17 5 1
