13 1 82
1 13 78
1 2 72
2 1 70
1 41 9
41 1 9
2 3 8
23 1 7
1 23 6
3 1 5
13 41 5
41 13 5
13 2 4
1 17 4
1 38 4
38 1 4
13 47 4
47 13 4
2 13 4
3 2 3
17 1 3
1 20 3
17 2 3
1 26 3
26 1 3
3 4 2
2 16 2
13 19 2
19 13 2
2 21 2
21 22 2
22 21 2
21 2 2
1 29 2
31 1 2
1 31 2
20 1 2
1 33 2
3 17 2
2 36 2
36 1 2
1 3 2
4 2 1
2 5 1
5 1 1
1 6 1
6 7 1
7 1 1
1 8 1
8 9 1
9 10 1
10 1 1
1 11 1
11 2 1
2 12 1
12 13 1
1 14 1
14 15 1
15 4 1
4 1 1
16 2 1
16 1 1
2 17 1
17 18 1
18 2 1
3 13 1
20 2 1
2 4 1
4 3 1
2 23 1
23 2 1
4 17 1
1 24 1
24 25 1
25 2 1
2 18 1
18 1 1
1 27 1
27 28 1
28 1 1
29 1 1
29 30 1
30 2 1
2 31 1
1 32 1
32 1 1
33 3 1
1 34 1
34 1 1
33 17 1
1 35 1
35 2 1
17 23 1
17 3 1
1 22 1
22 1 1
31 2 1
1 37 1
37 1 1
1 39 1
39 40 1
40 1 1
1 42 1
42 43 1
43 44 1
44 45 1
45 46 1
46 13 1
13 48 1
48 13 1
13 49 1
49 4 1
4 13 1
1 50 1
50 13 1
1 36 1
36 51 1
51 13 1
13 52 1
52 1 1
13 53 1
53 54 1
54 13 1
1 55 1
55 19 1
19 2 1
