12 2 116
2 12 113
5 2 33
2 5 23
2 13 15
13 2 13
4 2 11
12 17 10
15 2 10
2 4 9
2 14 9
14 12 9
2 15 9
2 3 8
12 14 8
17 12 8
13 14 7
14 15 5
14 13 5
2 17 5
14 2 5
19 20 5
20 19 5
19 2 5
3 2 5
12 15 5
15 12 5
12 13 5
13 12 5
15 13 4
17 2 4
13 15 3
15 14 3
14 5 3
2 11 2
17 5 2
2 20 2
2 23 2
23 2 2
2 19 2
2 28 2
12 5 2
14 16 2
1 2 1
3 4 1
4 5 1
2 6 1
6 7 1
7 8 1
8 9 1
9 10 1
10 5 1
11 5 1
5 12 1
13 16 1
16 15 1
13 5 1
15 5 1
2 10 1
10 2 1
11 18 1
18 5 1
5 13 1
13 19 1
20 21 1
21 19 1
20 22 1
22 20 1
20 4 1
4 19 1
19 4 1
2 24 1
24 4 1
2 25 1
25 19 1
2 26 1
26 2 1
2 27 1
27 12 1
28 2 1
28 12 1
2 29 1
29 30 1
30 31 1
31 32 1
32 33 1
33 34 1
34 2 1
2 35 1
35 2 1
2 36 1
36 2 1
4 37 1
37 38 1
38 2 1
2 39 1
39 12 1
2 40 1
40 10 1
10 14 1
2 41 1
41 12 1
2 42 1
42 2 1
5 43 1
43 12 1
3 44 1
44 2 1
3 12 1
2 45 1
45 5 1
5 46 1
46 5 1
5 47 1
47 4 1
12 48 1
48 12 1
2 49 1
49 2 1
16 14 1
16 2 1
17 13 1
2 50 1
50 51 1
51 52 1
52 13 1
13 17 1
17 53 1
53 12 1
12 51 1
51 2 1
12 4 1
4 12 1
2 54 1
54 2 1
12 54 1
