36 39 34
39 36 33
10 36 22
36 13 22
36 10 20
13 10 19
13 36 18
10 13 15
10 18 12
9 13 12
18 36 12
36 18 12
4 5 11
5 4 11
18 10 10
13 18 10
18 13 10
13 9 10
13 39 9
39 13 8
10 17 7
17 10 6
17 13 6
9 10 5
10 9 5
13 17 5
10 39 5
11 10 4
36 38 4
39 18 4
18 39 4
36 65 4
10 11 3
12 10 3
18 17 3
25 26 3
17 18 3
38 36 3
8 9 2
10 12 2
17 19 2
20 13 2
9 20 2
26 11 2
26 25 2
11 9 2
9 17 2
38 39 2
17 36 2
36 28 2
38 10 2
39 10 2
11 36 2
48 39 2
39 17 2
52 13 2
13 52 2
63 10 2
39 40 2
65 36 2
65 66 2
66 65 2
65 10 2
65 70 2
70 65 2
9 25 2
28 71 2
53 13 2
10 65 2
39 30 2
1 2 1
2 3 1
3 4 1
5 6 1
6 7 1
7 8 1
9 8 1
13 14 1
14 10 1
10 15 1
15 10 1
10 16 1
16 10 1
19 18 1
18 20 1
13 20 1
10 21 1
21 10 1
20 9 1
10 22 1
22 13 1
13 22 1
22 17 1
13 23 1
23 13 1
13 24 1
24 10 1
10 25 1
11 27 1
27 28 1
28 11 1
11 29 1
29 30 1
30 19 1
19 27 1
27 26 1
25 31 1
31 25 1
25 32 1
32 11 1
9 11 1
11 33 1
33 9 1
9 34 1
34 9 1
13 27 1
27 35 1
35 25 1
25 9 1
36 37 1
37 38 1
36 40 1
40 38 1
39 41 1
41 42 1
42 36 1
19 43 1
43 36 1
38 13 1
13 38 1
28 39 1
39 38 1
13 31 1
31 9 1
9 44 1
44 10 1
10 45 1
45 36 1
13 46 1
46 11 1
39 47 1
47 48 1
48 13 1
13 49 1
49 13 1
13 50 1
50 13 1
13 48 1
48 12 1
12 13 1
13 12 1
10 51 1
51 48 1
36 17 1
17 48 1
48 36 1
39 48 1
17 39 1
39 52 1
52 53 1
53 52 1
52 54 1
54 52 1
52 55 1
55 52 1
52 36 1
39 56 1
56 27 1
27 11 1
9 39 1
36 57 1
57 58 1
58 13 1
13 59 1
59 60 1
60 20 1
20 61 1
61 9 1
9 36 1
36 9 1
36 62 1
62 13 1
13 63 1
10 63 1
40 36 1
39 64 1
64 36 1
65 67 1
67 68 1
68 65 1
18 69 1
69 18 1
18 65 1
65 9 1
25 28 1
71 20 1
20 53 1
13 72 1
72 13 1
13 53 1
10 73 1
73 36 1
36 74 1
74 18 1
10 75 1
75 25 1
26 31 1
31 26 1
11 32 1
32 9 1
25 75 1
75 36 1
10 76 1
76 10 1
18 6 1
6 11 1
36 45 1
45 10 1
65 20 1
20 11 1
11 28 1
71 9 1
9 32 1
32 65 1
65 28 1
28 9 1
40 13 1
17 33 1
33 40 1
40 77 1
77 40 1
40 39 1
30 17 1
30 36 1
18 78 1
78 10 1
20 36 1
28 36 1
65 79 1
79 36 1
36 23 1
23 36 1
36 11 1
36 80 1
80 5 1
