2 3 62
3 2 56
9 3 20
3 15 20
3 9 19
15 3 17
9 2 15
2 9 15
3 54 12
54 3 11
3 23 10
23 3 10
13 3 9
3 19 9
3 13 8
19 3 8
24 23 8
17 3 7
9 23 7
23 24 7
24 9 7
23 9 7
9 24 7
2 13 6
13 2 6
3 17 5
44 45 5
54 17 5
9 17 4
3 46 4
45 3 4
14 3 3
3 24 3
17 2 3
24 17 3
45 44 3
17 54 3
3 44 3
46 3 3
3 8 2
3 10 2
10 3 2
3 11 2
11 3 2
15 13 2
13 17 2
2 18 2
19 15 2
15 19 2
24 3 2
17 23 2
32 17 2
17 24 2
17 9 2
3 42 2
42 3 2
44 3 2
23 45 2
2 51 2
51 2 2
44 9 2
3 45 2
1 2 1
3 4 1
4 5 1
5 6 1
6 7 1
7 2 1
8 9 1
2 12 1
12 3 1
13 14 1
3 16 1
16 13 1
17 13 1
18 2 1
9 20 1
20 9 1
2 21 1
21 9 1
2 22 1
22 2 1
23 25 1
25 23 1
23 26 1
26 24 1
23 27 1
27 9 1
23 14 1
19 28 1
28 29 1
29 2 1
24 2 1
3 30 1
30 3 1
18 17 1
2 17 1
23 31 1
31 23 1
23 17 1
17 32 1
3 32 1
23 33 1
33 23 1
23 34 1
34 23 1
2 35 1
35 2 1
2 36 1
36 2 1
15 37 1
37 3 1
3 14 1
8 24 1
3 38 1
38 39 1
39 40 1
40 41 1
41 3 1
3 43 1
43 23 1
23 44 1
2 27 1
27 23 1
46 17 1
17 47 1
47 48 1
48 49 1
49 47 1
47 3 1
3 50 1
50 45 1
45 50 1
50 23 1
45 23 1
45 2 1
2 52 1
52 53 1
53 2 1
9 54 1
54 55 1
55 3 1
3 56 1
56 2 1
17 57 1
57 2 1
9 58 1
58 9 1
3 59 1
59 44 1
9 44 1
2 60 1
60 3 1
17 60 1
60 54 1
17 61 1
61 9 1
9 62 1
62 23 1
23 63 1
63 23 1
23 64 1
64 2 1
3 65 1
65 3 1
3 66 1
66 2 1
