6 2 28
2 6 27
2 18 21
18 2 20
10 2 16
2 10 16
10 21 12
10 6 11
6 10 10
26 2 9
2 26 9
21 10 7
21 2 6
2 25 5
16 2 3
19 2 3
19 20 3
20 19 3
21 18 3
2 20 3
25 2 3
2 4 2
4 2 2
2 16 2
17 18 2
2 19 2
18 10 2
2 21 2
20 2 2
22 23 2
23 22 2
20 18 2
25 26 2
1 2 1
2 3 1
3 4 1
4 5 1
5 6 1
2 7 1
7 8 1
8 6 1
6 9 1
9 10 1
2 11 1
11 12 1
12 6 1
6 13 1
13 14 1
14 10 1
6 15 1
15 10 1
2 15 1
15 2 1
2 17 1
18 17 1
18 19 1
18 21 1
4 10 1
20 22 1
22 4 1
4 23 1
23 20 1
18 20 1
18 24 1
24 18 1
26 25 1
26 27 1
27 2 1
25 27 1
27 21 1
18 28 1
28 29 1
29 18 1
18 4 1
18 30 1
30 31 1
31 16 1
2 28 1
28 32 1
32 33 1
