36 3 35
3 36 33
16 3 26
3 16 22
27 3 22
3 27 16
11 10 11
3 14 11
10 11 10
14 10 9
10 14 9
36 16 9
14 3 8
16 14 8
2 3 7
14 16 7
3 2 6
16 36 6
19 3 5
20 10 4
3 26 4
16 29 4
29 16 4
3 19 4
36 27 4
10 31 4
31 10 4
56 16 4
3 56 4
14 36 4
26 3 3
31 17 3
17 31 3
39 10 3
41 36 3
3 41 3
41 27 3
14 50 3
16 56 3
10 3 3
56 3 3
3 5 2
8 3 2
3 8 2
9 10 2
11 14 2
3 17 2
17 3 2
10 21 2
21 20 2
10 20 2
20 12 2
12 20 2
3 35 2
27 36 2
10 39 2
36 38 2
38 3 2
3 48 2
27 11 2
36 58 2
3 12 2
54 14 2
50 14 2
58 36 2
16 54 2
1 2 1
2 4 1
4 2 1
5 6 1
6 3 1
3 7 1
7 3 1
5 8 1
8 9 1
11 12 1
12 11 1
10 9 1
11 13 1
13 14 1
14 15 1
15 14 1
3 18 1
18 19 1
3 20 1
21 10 1
20 21 1
10 22 1
22 12 1
12 23 1
23 24 1
24 3 1
3 25 1
25 3 1
26 27 1
27 28 1
28 16 1
3 30 1
30 2 1
2 31 1
31 32 1
32 33 1
33 34 1
34 27 1
35 36 1
36 37 1
37 36 1
35 16 1
16 35 1
35 38 1
38 35 1
35 39 1
10 40 1
40 10 1
10 41 1
36 41 1
41 42 1
42 41 1
36 42 1
42 5 1
5 41 1
27 42 1
42 43 1
43 44 1
44 45 1
45 27 1
38 46 1
46 47 1
47 38 1
48 3 1
48 11 1
10 38 1
3 49 1
49 10 1
50 3 1
41 31 1
31 3 1
41 37 1
37 31 1
31 41 1
10 51 1
51 14 1
14 41 1
3 11 1
11 52 1
52 53 1
53 14 1
14 54 1
54 27 1
14 55 1
55 50 1
50 16 1
16 57 1
57 16 1
50 36 1
58 3 1
12 32 1
32 10 1
10 12 1
12 10 1
10 59 1
59 10 1
16 27 1
16 60 1
60 16 1
16 61 1
61 3 1
56 62 1
62 56 1
3 54 1
14 56 1
56 63 1
63 50 1
36 10 1
10 16 1
14 64 1
64 58 1
36 11 1
54 16 1
14 65 1
65 66 1
66 16 1
3 55 1
55 67 1
67 10 1
10 55 1
55 3 1
3 10 1
3 68 1
68 16 1
16 10 1
10 69 1
69 36 1
3 70 1
70 36 1
16 12 1
12 36 1
38 36 1
16 71 1
71 16 1
12 16 1
3 72 1
72 3 1
3 73 1
73 74 1
74 20 1
20 74 1
74 55 1
55 74 1
74 36 1
36 75 1
75 2 1
2 12 1
12 76 1
