4 3 142
3 4 139
7 4 9
6 25 9
4 7 8
7 3 8
25 6 8
6 4 7
3 10 7
3 14 7
4 6 6
5 4 6
4 5 6
23 21 6
3 5 5
5 3 5
3 6 5
6 3 5
3 7 5
10 3 5
20 23 4
3 25 4
25 3 4
13 3 3
14 3 3
14 4 3
21 22 3
21 20 3
23 20 3
23 3 3
3 13 3
25 4 3
3 26 3
26 3 3
4 27 3
29 4 3
3 33 3
3 23 3
5 21 3
21 5 3
21 23 3
4 9 2
9 3 2
4 10 2
4 13 2
14 15 2
15 3 2
15 4 2
16 17 2
17 18 2
19 17 2
20 21 2
22 23 2
13 4 2
10 4 2
27 4 2
3 29 2
4 29 2
3 30 2
4 32 2
32 4 2
33 3 2
33 4 2
4 23 2
34 20 2
20 34 2
6 36 2
4 31 2
4 44 2
44 4 2
1 2 1
2 3 1
6 7 1
4 8 1
8 7 1
7 6 1
10 11 1
11 12 1
12 11 1
11 7 1
7 12 1
12 7 1
7 5 1
4 14 1
3 15 1
4 15 1
4 16 1
18 19 1
17 19 1
18 16 1
16 18 1
18 17 1
17 16 1
17 20 1
3 24 1
24 3 1
4 25 1
4 26 1
26 4 1
27 3 1
4 11 1
11 28 1
28 11 1
11 4 1
29 3 1
30 7 1
7 31 1
31 11 1
11 3 1
4 33 1
23 34 1
34 21 1
22 21 1
20 35 1
35 23 1
23 4 1
23 5 1
23 6 1
36 6 1
36 25 1
3 37 1
37 3 1
3 38 1
38 3 1
10 7 1
30 39 1
39 40 1
40 41 1
41 4 1
31 4 1
5 7 1
31 6 1
5 6 1
3 42 1
42 23 1
3 43 1
43 7 1
3 21 1
21 3 1
21 4 1
3 22 1
22 3 1
4 20 1
20 45 1
45 46 1
46 3 1
3 47 1
47 48 1
