14 13 19
13 14 18
17 14 11
14 17 10
20 21 9
24 14 8
21 20 7
14 24 7
17 20 5
3 4 4
20 17 4
24 23 4
17 23 4
46 47 4
47 46 4
46 17 4
17 46 4
4 3 3
21 17 3
23 24 3
23 17 3
7 3 2
12 13 2
32 14 2
32 33 2
29 24 2
33 38 2
38 29 2
29 17 2
42 14 2
17 43 2
47 17 2
17 47 2
46 48 2
48 46 2
1 2 1
2 3 1
4 5 1
5 6 1
6 7 1
3 7 1
3 8 1
8 9 1
9 10 1
10 11 1
11 12 1
14 15 1
15 16 1
16 15 1
15 17 1
17 10 1
10 18 1
18 12 1
14 19 1
19 20 1
17 21 1
14 20 1
20 22 1
22 23 1
23 25 1
25 17 1
17 22 1
22 26 1
26 27 1
27 28 1
28 24 1
14 29 1
29 14 1
14 30 1
30 31 1
31 32 1
14 32 1
33 29 1
24 33 1
33 23 1
23 33 1
33 34 1
34 24 1
24 29 1
24 32 1
32 24 1
23 29 1
29 35 1
35 31 1
31 36 1
36 35 1
35 32 1
13 30 1
30 33 1
33 37 1
37 33 1
17 32 1
32 39 1
39 40 1
40 32 1
17 24 1
24 17 1
23 30 1
30 41 1
41 14 1
13 42 1
13 17 1
17 41 1
41 17 1
43 17 1
43 44 1
44 42 1
14 42 1
42 17 1
17 33 1
33 45 1
45 46 1
