12 13 14
10 12 13
14 10 12
25 10 12
10 25 11
11 10 9
13 12 8
12 10 8
10 11 7
13 14 7
12 14 7
14 12 7
10 14 7
15 14 7
13 10 6
10 13 6
14 15 6
11 25 6
14 18 5
25 11 5
11 27 5
9 10 4
10 9 4
14 13 4
18 14 4
19 14 4
27 11 4
17 15 3
15 17 3
18 13 3
14 19 3
11 21 3
21 11 3
13 15 3
15 12 2
17 14 2
10 18 2
20 11 2
11 14 2
13 22 2
22 14 2
14 22 2
12 23 2
23 12 2
24 11 2
14 11 2
14 17 2
1 2 1
2 3 1
3 4 1
4 5 1
5 6 1
6 7 1
7 8 1
8 9 1
9 11 1
15 13 1
12 15 1
10 16 1
16 17 1
17 10 1
10 17 1
12 18 1
13 18 1
13 19 1
18 20 1
11 20 1
22 13 1
22 12 1
13 24 1
11 24 1
25 14 1
14 26 1
26 14 1
17 25 1
27 28 1
28 11 1
13 17 1
17 29 1
29 13 1
10 29 1
29 10 1
18 30 1
