2 1 107
1 2 106
27 1 69
1 27 66
1 16 44
16 1 44
2 31 25
27 2 22
31 2 20
2 27 20
1 14 16
14 1 15
24 1 10
1 24 10
24 16 9
9 2 8
6 2 8
16 24 8
1 31 8
25 27 7
2 6 6
2 9 6
31 1 6
26 27 6
16 27 6
31 25 6
27 25 5
38 1 5
31 38 5
27 26 5
25 2 5
1 9 4
1 38 4
39 31 4
38 2 4
49 2 4
2 53 4
53 2 4
27 16 4
31 30 4
30 85 4
2 4 3
1 6 3
6 1 3
25 1 3
6 30 3
25 34 3
34 27 3
31 39 3
40 27 3
14 16 3
2 49 3
16 2 3
2 25 3
2 26 3
26 2 3
85 30 3
30 31 3
4 1 2
2 11 2
11 2 2
14 2 2
2 15 2
9 17 2
17 1 2
6 17 2
2 16 2
17 6 2
23 1 2
14 24 2
1 26 2
26 23 2
29 6 2
30 6 2
2 14 2
16 25 2
34 25 2
27 35 2
39 38 2
38 31 2
2 38 2
27 40 2
16 14 2
16 31 2
59 16 2
26 1 2
16 38 2
38 16 2
30 63 2
26 25 2
71 2 2
74 69 2
31 76 2
76 25 2
25 78 2
78 25 2
79 75 2
25 26 2
25 31 2
25 82 2
82 25 2
55 2 2
1 30 2
86 31 2
82 16 2
31 26 2
2 89 2
89 27 2
2 3 1
3 2 1
4 2 1
1 4 1
4 5 1
5 1 1
6 7 1
7 6 1
6 8 1
8 2 1
9 1 1
1 10 1
10 9 1
9 12 1
12 2 1
9 13 1
13 9 1
15 2 1
15 14 1
1 17 1
17 18 1
18 1 1
17 9 1
2 19 1
19 20 1
20 6 1
1 11 1
11 6 1
6 21 1
21 17 1
6 16 1
16 6 1
2 22 1
22 2 1
2 23 1
2 24 1
24 14 1
24 25 1
23 25 1
1 25 1
27 28 1
28 27 1
1 29 1
6 29 1
30 27 1
31 32 1
32 31 1
25 33 1
33 25 1
27 34 1
34 35 1
35 25 1
25 36 1
36 25 1
35 34 1
27 37 1
37 38 1
1 39 1
38 23 1
2 32 1
32 2 1
31 27 1
27 41 1
41 26 1
16 42 1
42 14 1
38 39 1
38 43 1
43 31 1
31 43 1
43 44 1
44 27 1
27 45 1
45 34 1
35 27 1
27 46 1
46 33 1
33 45 1
45 25 1
2 47 1
47 1 1
2 48 1
48 49 1
49 50 1
50 49 1
1 51 1
51 52 1
52 1 1
1 52 1
52 16 1
53 20 1
20 53 1
2 54 1
54 55 1
55 6 1
6 56 1
56 6 1
14 27 1
16 57 1
57 16 1
16 49 1
49 24 1
24 58 1
58 24 1
24 39 1
31 59 1
59 1 1
2 60 1
60 6 1
1 59 1
1 61 1
61 59 1
2 62 1
62 30 1
30 49 1
49 48 1
48 30 1
63 30 1
63 64 1
64 31 1
30 5 1
5 65 1
65 66 1
66 67 1
67 43 1
43 30 1
30 43 1
43 68 1
68 26 1
25 69 1
69 25 1
25 70 1
70 71 1
2 72 1
72 73 1
73 74 1
69 74 1
69 75 1
75 74 1
74 31 1
25 77 1
77 25 1
25 79 1
75 79 1
75 80 1
80 2 1
2 71 1
31 81 1
81 55 1
55 30 1
30 17 1
17 25 1
25 76 1
76 2 1
2 76 1
76 1 1
1 55 1
31 16 1
25 16 1
1 83 1
83 16 1
27 84 1
84 55 1
30 1 1
30 2 1
2 40 1
26 85 1
85 1 1
1 86 1
30 26 1
26 87 1
87 30 1
31 86 1
25 88 1
88 82 1
16 88 1
88 16 1
16 82 1
1 67 1
67 30 1
30 79 1
79 31 1
25 80 1
80 89 1
89 2 1
89 25 1
25 89 1
89 31 1
27 89 1
27 90 1
90 2 1
27 67 1
67 89 1
89 30 1
85 31 1
23 2 1
