3 31 53
31 3 52
2 3 44
3 2 43
3 24 37
24 3 29
3 13 24
31 16 24
13 3 22
24 31 19
16 3 18
16 31 17
31 24 15
3 22 14
22 3 14
3 16 14
5 27 9
27 5 9
31 2 9
24 7 7
16 27 7
2 31 6
32 31 6
34 31 6
47 3 6
3 48 6
22 2 5
2 22 5
16 2 5
31 32 5
31 34 5
27 16 5
48 3 5
48 51 5
3 47 5
7 2 4
23 22 4
7 24 4
2 7 4
31 40 4
40 31 4
46 59 4
5 17 3
2 16 3
22 23 3
24 2 3
3 5 3
5 24 3
2 24 3
36 5 3
5 36 3
48 47 3
46 48 3
59 46 3
51 48 3
15 3 2
16 5 2
17 5 2
19 20 2
23 3 2
3 23 2
25 27 2
27 25 2
5 26 2
26 5 2
7 3 2
28 3 2
30 3 2
3 30 2
7 31 2
5 3 2
27 31 2
36 27 2
27 37 2
36 3 2
31 36 2
5 31 2
19 31 2
48 13 2
47 48 2
48 46 2
5 13 2
13 47 2
51 3 2
5 46 2
47 13 2
61 5 2
1 2 1
2 4 1
4 5 1
5 6 1
6 5 1
5 7 1
2 8 1
8 9 1
9 2 1
2 10 1
10 11 1
11 12 1
12 3 1
3 14 1
14 15 1
3 12 1
12 11 1
11 16 1
5 16 1
5 18 1
18 5 1
17 2 1
13 2 1
2 19 1
20 2 1
2 21 1
21 3 1
2 23 1
22 15 1
24 16 1
16 24 1
24 25 1
25 26 1
26 25 1
25 5 1
27 3 1
2 28 1
3 28 1
2 29 1
29 30 1
30 24 1
24 28 1
28 24 1
31 7 1
3 32 1
31 5 1
5 4 1
4 27 1
27 7 1
2 33 1
33 3 1
24 34 1
31 26 1
26 16 1
24 27 1
27 35 1
35 27 1
24 36 1
37 5 1
5 37 1
37 36 1
7 38 1
38 3 1
3 39 1
39 31 1
3 36 1
36 31 1
27 40 1
40 27 1
2 41 1
41 2 1
3 19 1
19 2 1
2 42 1
42 2 1
36 19 1
20 19 1
31 19 1
7 5 1
24 5 1
16 43 1
43 3 1
2 27 1
31 44 1
44 16 1
27 45 1
45 46 1
46 45 1
45 47 1
3 45 1
45 5 1
13 48 1
13 49 1
49 3 1
3 49 1
49 2 1
2 50 1
50 48 1
51 52 1
52 13 1
13 53 1
53 54 1
54 47 1
47 55 1
55 3 1
48 56 1
56 48 1
3 57 1
57 5 1
5 48 1
3 58 1
58 3 1
13 46 1
48 5 1
59 50 1
50 46 1
46 60 1
60 59 1
46 5 1
59 48 1
48 59 1
59 36 1
37 48 1
13 45 1
45 48 1
3 51 1
48 61 1
61 3 1
47 5 1
13 61 1
5 2 1
2 5 1
5 62 1
62 3 1
3 50 1
50 61 1
61 27 1
27 61 1
31 63 1
63 31 1
2 64 1
64 2 1
3 65 1
