18 12 25
18 19 23
12 18 21
8 18 19
19 18 16
12 8 15
18 8 15
19 12 15
12 19 14
30 7 13
7 30 11
12 32 11
32 12 10
7 12 10
18 26 9
26 18 9
12 7 9
8 12 8
31 12 8
34 26 8
8 11 7
19 8 7
12 30 7
12 31 7
8 19 7
26 34 7
6 7 6
11 8 6
7 6 5
30 12 5
26 48 5
8 10 4
15 8 4
8 15 4
18 11 4
53 8 4
48 26 4
10 8 3
17 8 3
8 17 3
17 18 3
11 12 3
24 18 3
18 7 3
18 37 3
37 18 3
7 38 3
42 7 3
26 52 3
18 17 2
11 18 2
11 19 2
10 11 2
12 11 2
11 21 2
25 24 2
24 12 2
12 26 2
19 26 2
18 34 2
7 18 2
7 43 2
44 18 2
30 18 2
48 34 2
34 37 2
8 53 2
42 38 2
38 42 2
19 53 2
53 18 2
67 12 2
1 2 1
2 3 1
3 4 1
4 5 1
5 6 1
7 8 1
8 9 1
9 8 1
8 13 1
13 8 1
8 14 1
14 15 1
15 11 1
11 16 1
16 11 1
11 17 1
19 11 1
8 20 1
20 18 1
12 10 1
21 8 1
21 22 1
22 12 1
8 23 1
23 8 1
8 24 1
11 23 1
23 25 1
26 24 1
18 25 1
18 27 1
27 19 1
12 24 1
26 28 1
28 29 1
29 18 1
26 19 1
26 12 1
30 31 1
32 18 1
18 33 1
33 34 1
34 18 1
34 35 1
35 8 1
19 35 1
35 18 1
19 36 1
36 19 1
38 39 1
39 7 1
38 7 1
38 18 1
18 40 1
40 12 1
19 40 1
40 19 1
19 41 1
41 7 1
7 41 1
41 30 1
19 42 1
7 42 1
43 12 1
8 26 1
19 44 1
18 45 1
45 46 1
46 44 1
8 47 1
47 45 1
45 30 1
8 42 1
42 26 1
48 49 1
49 50 1
50 48 1
26 51 1
51 26 1
37 34 1
52 26 1
48 30 1
30 53 1
8 54 1
54 53 1
8 55 1
55 26 1
48 56 1
56 57 1
57 58 1
58 26 1
26 42 1
38 30 1
30 6 1
6 59 1
59 26 1
26 8 1
52 60 1
60 30 1
30 47 1
47 61 1
61 62 1
62 18 1
18 30 1
7 26 1
52 48 1
26 63 1
63 64 1
64 65 1
65 18 1
26 30 1
30 48 1
26 66 1
66 26 1
37 38 1
43 7 1
7 67 1
12 67 1
12 59 1
59 48 1
34 59 1
59 68 1
68 8 1
