4 9 177
9 4 169
11 4 37
4 11 33
4 5 17
5 4 17
6 4 15
4 6 11
7 4 5
4 25 5
25 4 5
5 7 4
5 6 4
4 7 4
7 5 4
9 7 4
4 16 4
16 4 4
4 26 4
26 4 4
9 6 3
4 12 3
12 4 3
7 9 3
9 5 3
4 10 3
9 11 3
6 5 2
10 4 2
4 14 2
14 4 2
5 11 2
11 9 2
1 2 1
2 3 1
3 4 1
4 8 1
8 6 1
6 9 1
6 10 1
10 5 1
6 7 1
4 13 1
13 9 1
7 6 1
9 15 1
15 4 1
4 17 1
17 18 1
18 19 1
19 14 1
14 19 1
19 9 1
9 20 1
20 9 1
9 19 1
19 21 1
21 9 1
9 17 1
17 22 1
22 4 1
4 20 1
20 4 1
11 23 1
23 9 1
9 24 1
24 4 1
10 9 1
9 27 1
27 11 1
4 28 1
28 4 1
4 29 1
29 4 1
9 30 1
30 4 1
4 31 1
31 4 1
9 32 1
32 9 1
9 10 1
10 11 1
4 33 1
33 9 1
4 34 1
34 35 1
35 36 1
36 37 1
37 4 1
4 3 1
