32 33 44
33 32 37
17 58 20
11 9 18
9 11 17
58 17 12
15 17 10
33 38 10
17 15 10
14 9 8
16 15 7
38 33 7
19 17 7
9 14 6
15 16 6
17 16 6
45 17 6
17 26 6
63 17 6
17 63 6
26 45 6
21 16 5
15 26 5
16 21 5
16 20 5
20 16 5
15 19 5
17 45 5
9 10 4
11 14 4
26 15 4
33 4 4
4 32 4
16 19 4
16 41 4
43 17 4
17 20 4
17 47 4
41 17 4
10 8 3
16 17 3
14 11 3
9 17 3
26 27 3
33 35 3
35 33 3
19 16 3
45 15 3
17 19 3
21 32 3
26 17 3
45 47 3
47 17 3
26 60 3
60 26 3
27 26 3
45 26 3
62 17 3
80 17 3
8 10 2
10 11 2
10 9 2
19 20 2
20 19 2
17 22 2
22 17 2
17 9 2
32 4 2
41 16 2
41 21 2
43 44 2
15 43 2
21 17 2
17 21 2
45 21 2
32 17 2
17 32 2
32 9 2
20 15 2
26 47 2
26 9 2
49 32 2
47 45 2
46 17 2
15 53 2
53 15 2
55 33 2
58 33 2
38 17 2
63 16 2
16 63 2
68 9 2
9 68 2
70 26 2
58 73 2
58 41 2
17 62 2
17 56 2
15 45 2
20 17 2
56 17 2
17 80 2
1 2 1
2 3 1
3 4 1
4 5 1
5 6 1
6 7 1
7 5 1
5 7 1
7 8 1
8 9 1
11 10 1
10 12 1
12 11 1
9 13 1
13 11 1
9 15 1
17 18 1
18 19 1
20 21 1
16 9 1
17 23 1
23 22 1
22 23 1
23 17 1
17 24 1
24 25 1
25 15 1
15 25 1
25 26 1
27 28 1
28 21 1
21 29 1
29 16 1
11 30 1
30 14 1
9 31 1
31 32 1
33 34 1
34 32 1
4 35 1
35 32 1
32 36 1
36 17 1
17 14 1
14 37 1
37 9 1
11 32 1
38 32 1
38 39 1
39 10 1
10 40 1
40 10 1
8 40 1
40 11 1
9 8 1
8 16 1
16 30 1
30 16 1
21 41 1
21 42 1
42 17 1
41 15 1
16 43 1
44 45 1
19 43 1
27 15 1
15 21 1
32 46 1
46 32 1
32 45 1
45 46 1
46 45 1
32 21 1
32 14 1
14 8 1
8 32 1
47 43 1
26 48 1
48 43 1
43 26 1
9 26 1
26 32 1
32 49 1
32 26 1
26 49 1
32 15 1
17 44 1
44 43 1
43 45 1
45 44 1
44 26 1
21 50 1
50 17 1
17 46 1
26 19 1
19 51 1
51 43 1
44 17 1
17 52 1
52 15 1
47 46 1
15 54 1
54 15 1
15 55 1
33 55 1
33 51 1
51 56 1
56 57 1
57 19 1
19 58 1
47 59 1
59 47 1
26 46 1
46 26 1
9 61 1
61 55 1
55 32 1
33 17 1
17 38 1
38 62 1
62 38 1
58 16 1
58 63 1
9 46 1
46 20 1
19 45 1
63 64 1
64 32 1
33 65 1
65 33 1
32 66 1
66 33 1
33 67 1
67 68 1
9 69 1
69 9 1
68 70 1
45 20 1
20 71 1
71 72 1
72 17 1
73 17 1
73 41 1
17 72 1
72 58 1
17 41 1
58 62 1
15 27 1
56 43 1
17 43 1
43 46 1
46 70 1
15 47 1
47 26 1
26 20 1
20 26 1
47 27 1
26 74 1
74 26 1
26 70 1
70 15 1
15 20 1
47 15 1
43 15 1
19 15 1
15 75 1
75 15 1
20 76 1
76 26 1
26 77 1
77 32 1
4 33 1
38 4 1
4 38 1
33 78 1
78 33 1
33 79 1
79 17 1
21 56 1
58 80 1
