25 1 39
9 7 38
1 25 38
7 9 34
4 25 25
25 4 24
7 11 16
4 28 15
28 4 15
11 7 14
7 38 12
38 7 12
2 13 11
13 2 11
9 38 10
38 9 10
4 6 9
6 4 9
4 27 8
27 4 8
3 2 7
2 4 7
11 9 7
9 11 7
2 3 6
55 25 6
12 2 5
25 55 5
2 12 4
4 2 4
24 7 4
1 37 4
4 5 3
5 4 3
6 7 3
7 24 3
37 1 3
25 56 3
7 57 3
2 14 2
17 4 2
4 17 2
19 2 2
7 1 2
4 29 2
39 1 2
1 40 2
40 1 2
7 6 2
56 25 2
57 7 2
1 2 1
5 6 1
6 5 1
7 8 1
8 9 1
9 10 1
10 9 1
11 12 1
14 2 1
14 15 1
15 4 1
4 16 1
16 17 1
17 2 1
2 18 1
18 2 1
4 15 1
15 19 1
2 19 1
19 20 1
20 2 1
2 21 1
21 22 1
22 21 1
21 23 1
23 2 1
4 19 1
2 9 1
9 2 1
2 24 1
1 26 1
26 1 1
1 9 1
11 1 1
29 4 1
29 30 1
30 4 1
4 31 1
31 6 1
6 9 1
7 32 1
32 3 1
2 1 1
1 33 1
33 34 1
34 35 1
35 36 1
36 25 1
1 38 1
38 1 1
37 25 1
1 39 1
1 41 1
41 42 1
42 43 1
43 4 1
6 44 1
44 6 1
4 7 1
7 45 1
45 9 1
9 1 1
1 46 1
46 25 1
1 47 1
47 1 1
1 48 1
48 7 1
25 31 1
31 49 1
49 50 1
50 51 1
51 52 1
52 53 1
53 54 1
54 31 1
31 55 1
25 6 1
56 4 1
25 9 1
57 58 1
58 59 1
59 60 1
60 61 1
61 39 1
1 61 1
