6 16 35
16 6 33
16 24 21
24 16 21
16 19 13
6 4 12
19 16 12
4 6 10
23 19 10
14 24 10
24 14 10
19 23 9
24 23 9
24 28 8
28 24 8
30 6 8
23 24 7
12 16 7
16 23 6
23 16 6
19 24 6
6 17 5
24 25 5
25 24 5
16 12 5
24 19 4
6 30 4
11 12 3
6 14 3
14 6 3
17 16 3
16 21 3
4 30 3
3 4 2
4 7 2
12 11 2
16 4 2
17 6 2
21 16 2
32 28 2
12 24 2
24 12 2
4 12 2
16 34 2
34 12 2
1 2 1
2 3 1
4 3 1
4 5 1
5 4 1
4 1 1
1 4 1
7 6 1
7 8 1
8 7 1
7 9 1
9 10 1
10 11 1
12 13 1
13 12 1
12 1 1
1 6 1
6 15 1
15 6 1
16 18 1
18 6 1
19 20 1
20 16 1
21 22 1
22 17 1
24 26 1
26 27 1
27 12 1
28 29 1
29 30 1
6 31 1
31 29 1
29 32 1
28 12 1
12 28 1
28 33 1
33 24 1
24 6 1
6 32 1
28 14 1
14 18 1
18 4 1
6 24 1
23 12 1
16 28 1
12 19 1
12 6 1
17 4 1
12 34 1
34 6 1
