8 12 30
12 14 25
12 8 20
14 12 17
14 8 9
8 14 9
12 19 9
14 19 8
19 14 7
19 12 6
53 12 4
14 13 3
13 12 3
19 8 3
85 89 3
12 63 3
63 12 3
101 53 3
8 11 2
11 8 2
18 12 2
12 10 2
60 14 2
14 71 2
10 13 2
84 85 2
85 84 2
87 84 2
84 12 2
1 2 1
2 3 1
3 4 1
4 5 1
5 6 1
6 7 1
7 6 1
6 8 1
8 9 1
9 10 1
10 8 1
11 12 1
12 13 1
13 11 1
14 15 1
15 12 1
14 16 1
16 12 1
12 17 1
17 18 1
18 8 1
12 20 1
20 12 1
14 21 1
21 12 1
8 22 1
22 8 1
8 18 1
12 23 1
23 24 1
24 12 1
12 25 1
25 14 1
14 26 1
26 27 1
27 14 1
12 28 1
28 29 1
29 12 1
12 30 1
30 12 1
12 31 1
31 8 1
12 32 1
32 8 1
12 33 1
33 34 1
34 8 1
12 35 1
35 12 1
8 19 1
19 36 1
36 12 1
14 37 1
37 19 1
14 38 1
38 8 1
12 39 1
39 8 1
8 40 1
40 8 1
12 41 1
41 12 1
12 38 1
38 42 1
42 8 1
12 43 1
43 8 1
10 44 1
44 45 1
45 12 1
14 44 1
44 46 1
46 47 1
47 48 1
48 49 1
49 50 1
50 51 1
51 52 1
52 53 1
12 49 1
49 54 1
54 55 1
55 34 1
34 56 1
56 57 1
57 49 1
49 58 1
58 14 1
19 59 1
59 60 1
19 61 1
61 57 1
57 61 1
61 12 1
12 29 1
29 8 1
8 62 1
62 63 1
63 8 1
12 64 1
64 60 1
60 65 1
65 12 1
12 66 1
66 12 1
12 67 1
67 14 1
14 68 1
68 69 1
69 70 1
70 14 1
71 19 1
19 56 1
56 46 1
46 12 1
12 72 1
72 14 1
14 73 1
73 74 1
74 10 1
13 14 1
14 60 1
60 39 1
39 12 1
12 75 1
75 14 1
8 60 1
14 76 1
76 12 1
12 77 1
77 18 1
18 14 1
14 78 1
78 12 1
12 79 1
79 14 1
14 80 1
80 81 1
81 82 1
82 83 1
83 82 1
82 8 1
8 84 1
84 86 1
86 87 1
84 88 1
88 85 1
89 80 1
80 85 1
89 85 1
89 90 1
90 91 1
91 92 1
92 85 1
85 93 1
93 84 1
85 94 1
94 84 1
12 80 1
80 63 1
63 95 1
95 12 1
12 84 1
63 84 1
84 96 1
96 85 1
84 87 1
84 97 1
97 84 1
84 8 1
12 98 1
98 85 1
85 8 1
8 85 1
85 80 1
80 99 1
99 19 1
19 100 1
100 10 1
13 10 1
10 63 1
12 101 1
53 101 1
12 53 1
12 18 1
12 102 1
102 14 1
63 103 1
103 104 1
104 12 1
14 105 1
105 8 1
8 105 1
105 101 1
8 63 1
63 19 1
19 63 1
10 12 1
71 106 1
106 107 1
107 12 1
14 108 1
108 12 1
12 109 1
109 11 1
11 105 1
