1 2 222
2 1 221
14 5 27
5 14 26
15 14 23
14 15 22
5 6 19
6 5 18
1 15 14
29 31 14
32 1 14
1 32 14
6 2 13
15 1 13
31 29 13
2 6 10
5 15 10
15 5 8
2 19 8
1 6 7
6 14 7
19 1 6
14 6 6
12 13 5
2 5 4
13 12 4
14 1 4
6 1 4
2 3 3
3 2 3
1 8 3
1 12 3
12 1 3
1 14 3
1 34 3
34 2 3
2 35 3
35 1 3
2 4 2
4 2 2
7 1 2
1 7 2
10 1 2
24 1 2
2 15 2
19 8 2
8 2 2
14 27 2
27 14 2
1 29 2
36 37 2
37 36 2
6 7 1
7 6 1
6 8 1
8 9 1
9 1 1
8 10 1
1 10 1
8 11 1
11 1 1
1 13 1
13 1 1
13 14 1
1 5 1
15 12 1
1 16 1
16 14 1
15 17 1
17 5 1
5 17 1
17 15 1
5 18 1
18 1 1
5 2 1
1 20 1
20 2 1
5 1 1
2 21 1
21 1 1
2 22 1
22 14 1
19 2 1
1 23 1
23 2 1
14 24 1
15 24 1
14 2 1
15 25 1
25 2 1
1 24 1
24 2 1
15 2 1
1 26 1
26 19 1
15 27 1
27 15 1
1 28 1
28 1 1
2 28 1
28 2 1
2 23 1
23 1 1
29 30 1
30 29 1
29 32 1
32 19 1
1 33 1
33 2 1
8 32 1
32 12 1
19 35 1
12 15 1
15 6 1
14 29 1
29 36 1
36 32 1
32 2 1
1 38 1
38 1 1
35 2 1
2 7 1
7 2 1
