3 1 210
1 3 207
6 17 24
17 6 24
17 18 22
18 17 21
6 7 18
7 6 18
43 45 13
46 1 13
1 46 13
7 3 12
45 43 12
1 18 11
3 7 10
18 1 10
18 6 9
6 18 9
1 7 7
3 26 7
1 29 7
29 1 7
7 17 7
26 1 6
17 7 6
15 16 5
3 6 4
16 15 4
17 1 4
1 17 4
7 1 4
3 4 3
4 3 3
1 12 3
1 15 3
15 1 3
1 48 3
3 49 3
49 1 3
2 3 2
3 5 2
5 3 2
8 1 2
1 8 2
13 1 2
19 1 2
6 25 2
25 3 2
28 1 2
36 1 2
3 18 2
12 3 2
17 40 2
40 17 2
48 3 2
50 51 2
51 50 2
1 2 1
7 8 1
8 9 1
9 7 1
7 10 1
10 11 1
11 1 1
12 13 1
1 13 1
12 14 1
14 1 1
1 16 1
16 1 1
16 17 1
1 6 1
1 19 1
18 15 1
18 20 1
20 17 1
1 21 1
21 18 1
18 22 1
22 6 1
6 23 1
23 18 1
6 24 1
24 1 1
1 27 1
27 3 1
1 28 1
6 28 1
29 3 1
3 30 1
30 1 1
3 31 1
31 17 1
3 32 1
32 26 1
26 3 1
1 25 1
25 7 1
7 33 1
33 7 1
1 34 1
34 3 1
3 2 1
1 35 1
35 3 1
18 33 1
33 18 1
17 36 1
18 36 1
17 3 1
18 37 1
37 3 1
6 19 1
1 36 1
36 3 1
18 3 1
1 38 1
38 3 1
1 39 1
39 12 1
18 40 1
40 18 1
1 41 1
41 1 1
3 41 1
41 28 1
28 3 1
3 35 1
35 1 1
1 42 1
42 43 1
43 44 1
44 43 1
43 46 1
46 26 1
1 47 1
47 3 1
12 46 1
46 15 1
26 12 1
3 29 1
26 49 1
15 18 1
18 7 1
17 43 1
43 50 1
50 46 1
46 3 1
1 33 1
33 1 1
1 52 1
52 1 1
7 53 1
53 3 1
49 3 1
48 54 1
54 3 1
3 55 1
55 8 1
8 3 1
1 43 1
