5 9 197
9 5 192
4 7 33
7 4 33
4 6 28
9 13 27
6 4 25
13 9 20
29 9 20
9 29 19
7 16 17
16 7 16
16 5 12
5 16 11
6 7 11
7 6 10
20 9 10
9 6 9
9 20 9
6 9 8
13 5 8
6 5 7
4 16 7
16 4 7
9 4 5
5 4 4
5 6 4
1 2 3
2 1 3
4 5 3
10 5 3
16 9 3
7 9 3
4 9 3
5 13 3
23 9 3
24 9 3
5 10 2
5 11 2
11 5 2
13 15 2
9 7 2
16 6 2
9 21 2
20 13 2
9 16 2
5 7 2
9 24 2
4 26 2
26 4 2
27 9 2
13 29 2
5 33 2
4 35 2
37 2 2
2 37 2
1 3 1
3 4 1
5 8 1
8 9 1
9 10 1
9 12 1
12 13 1
9 14 1
14 13 1
15 13 1
13 16 1
9 17 1
17 13 1
13 18 1
18 9 1
15 9 1
9 19 1
19 20 1
21 9 1
21 20 1
13 4 1
7 5 1
5 22 1
22 5 1
4 23 1
6 23 1
13 24 1
9 23 1
5 25 1
25 9 1
6 26 1
26 6 1
5 27 1
9 27 1
9 28 1
28 9 1
9 30 1
30 5 1
29 20 1
20 31 1
31 7 1
6 16 1
6 29 1
29 5 1
9 32 1
32 9 1
33 9 1
33 20 1
9 1 1
1 7 1
7 1 1
1 6 1
7 34 1
34 6 1
6 34 1
34 16 1
35 4 1
4 36 1
36 4 1
35 37 1
2 38 1
38 2 1
37 38 1
