3 2 15
2 3 13
15 17 13
2 5 12
2 14 12
17 15 12
14 2 11
5 2 9
18 19 9
19 18 8
17 30 8
19 39 8
13 2 7
25 2 7
30 17 7
25 35 7
2 16 6
16 2 6
35 25 6
39 19 6
2 4 5
4 2 5
2 9 5
9 2 5
30 2 5
2 25 5
2 13 5
15 2 4
24 25 4
29 19 4
25 15 4
15 25 4
12 13 3
18 20 3
20 18 3
19 20 3
20 19 3
2 23 3
25 24 3
23 30 3
19 29 3
8 2 2
10 11 2
13 12 2
2 15 2
17 2 2
18 2 2
23 2 2
2 30 2
30 23 2
15 3 2
2 17 2
2 35 2
35 2 2
36 15 2
38 18 2
39 2 2
1 2 1
5 6 1
6 5 1
2 7 1
7 2 1
5 8 1
2 10 1
11 10 1
11 3 1
2 12 1
3 18 1
18 3 1
3 21 1
21 18 1
2 22 1
22 2 1
5 3 1
2 8 1
5 24 1
2 26 1
26 27 1
27 15 1
15 28 1
28 29 1
29 17 1
17 29 1
29 28 1
28 15 1
2 31 1
31 15 1
3 32 1
32 30 1
30 15 1
2 33 1
33 30 1
2 34 1
34 18 1
19 25 1
35 3 1
2 36 1
15 36 1
3 37 1
37 38 1
18 38 1
2 29 1
2 39 1
39 3 1
3 19 1
14 3 1
2 40 1
40 15 1
3 25 1
2 18 1
18 13 1
