3 2 39
2 3 35
16 3 19
3 16 19
22 3 19
3 22 19
3 11 14
11 3 13
3 7 12
7 3 11
4 3 8
2 4 5
3 13 5
20 3 5
3 4 4
5 3 4
12 14 4
3 20 4
3 10 3
10 3 3
12 3 3
13 3 3
13 12 3
3 12 3
14 12 3
4 2 2
11 12 2
12 11 2
11 2 2
17 18 2
18 17 2
3 21 2
23 24 2
24 23 2
1 2 1
2 5 1
2 6 1
6 2 1
7 5 1
2 7 1
7 8 1
8 3 1
3 9 1
9 4 1
11 5 1
13 11 1
12 13 1
14 2 1
2 11 1
11 10 1
10 13 1
12 2 1
2 12 1
12 15 1
15 11 1
2 16 1
16 17 1
18 3 1
3 18 1
17 19 1
19 2 1
2 20 1
21 3 1
21 20 1
20 22 1
22 5 1
3 23 1
24 3 1
3 24 1
23 3 1
