7 2 63
6 7 55
7 6 52
2 7 52
5 7 31
7 5 28
7 10 24
10 7 22
2 6 21
6 2 19
7 11 17
9 7 16
11 7 16
2 10 13
9 6 12
10 2 12
7 9 11
8 10 11
2 5 11
7 8 10
5 2 10
5 6 9
10 11 9
2 9 9
10 6 9
6 9 9
4 3 8
6 5 8
6 10 8
8 7 7
11 10 7
9 2 7
9 5 7
10 8 7
3 2 6
2 4 6
3 4 5
11 2 5
11 9 5
8 9 5
5 9 5
9 8 5
2 3 4
2 11 4
15 10 4
2 8 4
8 2 4
10 9 4
10 15 4
4 2 3
2 14 3
10 5 3
5 10 3
6 11 3
7 19 3
19 7 3
6 8 2
7 12 2
12 7 2
10 17 2
17 7 2
11 6 2
21 8 2
23 7 2
21 7 2
1 2 1
3 5 1
11 12 1
12 13 1
13 12 1
12 2 1
14 2 1
7 15 1
9 10 1
2 16 1
16 10 1
8 5 1
8 6 1
9 11 1
15 11 1
17 10 1
2 17 1
7 17 1
17 18 1
18 7 1
2 12 1
12 14 1
14 7 1
19 2 1
14 11 1
10 20 1
20 10 1
10 21 1
8 21 1
14 22 1
22 9 1
5 23 1
7 23 1
2 21 1
7 21 1
6 24 1
24 7 1
7 25 1
25 7 1
2 19 1
19 25 1
25 19 1
2 26 1
26 7 1
6 27 1
27 9 1
