10 4 52
9 10 49
10 9 44
4 10 43
8 10 30
10 8 25
10 13 22
13 10 21
4 9 20
9 4 18
10 14 17
14 10 15
12 10 14
4 13 13
13 4 12
12 9 11
11 13 11
4 8 10
8 9 9
10 12 9
4 12 9
7 6 8
10 11 8
13 14 8
9 8 8
13 9 8
9 12 8
14 13 7
12 4 7
8 4 7
9 13 7
13 11 7
25 23 7
6 4 6
4 7 6
12 11 6
12 8 6
6 7 5
11 10 5
14 4 5
14 12 5
11 12 5
8 12 5
23 25 5
4 6 4
4 14 4
18 13 4
4 11 4
11 4 4
13 18 4
24 23 4
7 4 3
4 17 3
13 8 3
8 13 3
9 14 3
13 12 3
25 10 3
10 27 3
10 24 3
23 4 3
10 25 3
9 11 2
10 15 2
15 10 2
22 4 2
23 9 2
26 10 2
14 9 2
30 10 2
24 10 2
23 24 2
27 10 2
1 2 1
2 3 1
3 4 1
4 5 1
5 4 1
6 8 1
13 15 1
15 16 1
16 4 1
17 4 1
10 18 1
12 13 1
4 19 1
19 13 1
11 8 1
11 9 1
8 20 1
20 10 1
12 14 1
10 21 1
21 12 1
8 22 1
22 8 1
10 22 1
4 22 1
14 23 1
18 14 1
4 24 1
24 25 1
13 26 1
26 13 1
4 26 1
10 26 1
26 21 1
21 10 1
4 15 1
15 17 1
17 10 1
27 4 1
17 14 1
13 28 1
28 13 1
13 29 1
29 8 1
13 30 1
30 31 1
31 11 1
11 30 1
30 11 1
11 23 1
23 31 1
31 10 1
10 32 1
32 10 1
10 33 1
33 24 1
24 33 1
33 13 1
13 33 1
33 34 1
34 26 1
23 8 1
8 25 1
13 35 1
35 13 1
17 36 1
36 12 1
4 30 1
10 30 1
9 24 1
10 23 1
9 29 1
29 9 1
10 29 1
29 10 1
9 37 1
37 10 1
23 38 1
38 10 1
27 38 1
38 27 1
4 23 1
10 39 1
39 9 1
9 40 1
40 12 1
