2 17 99
17 2 98
20 2 20
2 20 19
36 2 11
2 36 9
10 2 8
2 3 7
2 12 7
12 2 7
16 17 6
55 2 6
3 2 6
2 8 5
17 16 5
20 61 5
61 20 5
2 9 4
2 10 4
2 23 4
23 2 4
34 10 4
57 55 4
55 20 4
20 55 4
9 2 3
8 2 3
9 10 3
10 9 3
12 8 3
17 42 3
42 17 3
2 55 3
55 57 3
57 56 3
59 60 3
60 59 3
64 65 3
65 64 3
52 17 3
75 17 3
17 76 3
76 17 3
17 84 3
84 17 3
4 2 2
8 10 2
8 14 2
10 12 2
2 18 2
19 2 2
2 19 2
19 20 2
20 19 2
20 21 2
21 20 2
20 22 2
22 20 2
20 29 2
2 33 2
14 34 2
34 2 2
34 14 2
14 8 2
37 2 2
2 38 2
40 17 2
17 40 2
2 50 2
2 51 2
17 36 2
36 52 2
55 17 2
2 56 2
56 2 2
2 57 2
17 57 2
56 57 2
58 17 2
17 67 2
67 17 2
17 68 2
68 17 2
10 34 2
10 17 2
17 52 2
17 75 2
17 89 2
89 17 2
1 2 1
3 4 1
2 4 1
2 5 1
5 6 1
6 7 1
7 8 1
8 4 1
4 9 1
8 11 1
11 2 1
2 13 1
13 10 1
10 8 1
14 9 1
8 15 1
15 16 1
18 2 1
18 19 1
2 24 1
24 17 1
17 25 1
25 20 1
20 26 1
26 2 1
19 27 1
27 28 1
28 20 1
29 20 1
29 19 1
19 30 1
30 17 1
17 31 1
31 17 1
17 19 1
19 17 1
17 32 1
32 10 1
33 14 1
9 14 1
14 2 1
2 35 1
35 10 1
12 34 1
8 36 1
36 34 1
10 14 1
8 37 1
2 37 1
38 2 1
38 25 1
25 3 1
3 39 1
39 40 1
40 39 1
39 41 1
41 17 1
17 39 1
39 17 1
2 43 1
43 2 1
2 44 1
44 2 1
2 45 1
45 46 1
46 47 1
47 48 1
48 47 1
47 2 1
17 49 1
49 2 1
50 2 1
50 17 1
51 2 1
52 2 1
17 53 1
53 54 1
54 2 1
51 55 1
56 17 1
17 55 1
57 2 1
55 56 1
56 55 1
2 58 1
17 58 1
2 59 1
59 20 1
2 61 1
61 62 1
62 63 1
63 64 1
64 66 1
66 17 1
17 10 1
33 62 1
62 69 1
69 17 1
17 62 1
62 17 1
17 69 1
69 62 1
62 33 1
33 12 1
12 14 1
14 12 1
12 10 1
9 34 1
34 12 1
9 12 1
2 67 1
67 68 1
68 10 1
2 70 1
70 34 1
2 34 1
14 10 1
10 70 1
70 2 1
17 12 1
12 55 1
20 36 1
17 71 1
71 17 1
17 20 1
20 72 1
72 55 1
57 20 1
17 73 1
73 2 1
55 74 1
74 55 1
2 75 1
76 2 1
17 77 1
77 76 1
17 78 1
78 17 1
17 72 1
72 79 1
79 72 1
72 20 1
20 80 1
80 81 1
81 20 1
20 82 1
82 20 1
20 17 1
2 83 1
83 2 1
2 84 1
84 44 1
44 17 1
17 85 1
85 2 1
2 86 1
86 17 1
17 86 1
86 36 1
2 87 1
87 86 1
86 88 1
88 2 1
3 17 1
17 3 1
17 90 1
90 91 1
91 89 1
89 90 1
90 2 1
2 92 1
92 10 1
