6 7 97
7 6 96
7 16 48
16 7 44
7 3 26
3 7 21
12 7 17
23 7 16
7 12 15
6 12 14
12 6 12
7 23 12
16 17 10
17 16 9
51 52 9
52 51 9
29 7 8
7 29 7
3 6 6
3 1 4
1 3 4
24 22 4
6 23 4
23 6 4
5 3 3
6 3 3
22 24 3
16 3 3
3 12 3
30 7 3
20 7 3
7 8 2
8 7 2
7 11 2
11 7 2
16 12 2
17 7 2
12 16 2
22 7 2
7 25 2
16 6 2
3 16 2
6 5 2
5 6 2
3 30 2
7 20 2
16 32 2
37 38 2
38 37 2
44 45 2
48 23 2
49 7 2
51 6 2
6 53 2
1 2 1
2 3 1
3 2 1
2 4 1
4 5 1
3 5 1
7 9 1
9 10 1
10 6 1
7 13 1
13 12 1
12 14 1
14 7 1
3 15 1
15 5 1
7 17 1
16 18 1
18 7 1
6 19 1
19 6 1
16 20 1
20 16 1
16 21 1
21 16 1
16 22 1
22 23 1
23 24 1
25 26 1
26 16 1
6 16 1
17 6 1
6 17 1
3 23 1
23 16 1
6 27 1
27 7 1
7 28 1
28 7 1
25 7 1
6 20 1
6 31 1
31 3 1
32 16 1
32 33 1
33 7 1
7 34 1
34 7 1
7 35 1
35 6 1
6 35 1
35 30 1
7 36 1
36 37 1
37 22 1
22 39 1
39 29 1
7 40 1
40 41 1
41 42 1
42 43 1
43 44 1
45 44 1
45 43 1
43 7 1
7 46 1
46 47 1
47 48 1
7 48 1
12 22 1
7 49 1
6 49 1
7 50 1
50 51 1
6 52 1
52 6 1
12 51 1
12 52 1
52 29 1
29 6 1
53 51 1
51 53 1
53 6 1
7 54 1
54 55 1
55 54 1
54 3 1
7 56 1
56 23 1
53 23 1
7 42 1
42 57 1
57 23 1
23 58 1
58 7 1
