11 24 11
24 31 10
24 11 9
23 24 8
31 11 7
32 31 6
11 31 6
24 23 5
31 24 5
40 24 4
31 23 3
31 32 3
55 24 3
10 11 2
4 16 2
11 12 2
12 11 2
32 11 2
11 32 2
24 40 2
59 11 2
24 73 2
73 11 2
1 2 1
2 3 1
3 4 1
4 5 1
5 4 1
4 6 1
6 4 1
4 7 1
7 4 1
4 8 1
8 4 1
4 9 1
9 10 1
11 10 1
10 4 1
4 12 1
12 13 1
13 4 1
4 14 1
14 9 1
9 15 1
15 9 1
9 4 1
16 4 1
16 11 1
11 17 1
17 18 1
18 19 1
19 20 1
20 21 1
21 22 1
22 23 1
24 25 1
25 19 1
19 11 1
11 26 1
26 10 1
11 27 1
27 11 1
11 28 1
28 29 1
29 11 1
11 7 1
7 30 1
30 24 1
24 32 1
32 24 1
23 31 1
31 33 1
33 34 1
34 35 1
35 31 1
31 36 1
36 32 1
24 13 1
13 37 1
37 13 1
13 38 1
38 13 1
13 19 1
19 39 1
39 40 1
40 23 1
31 40 1
40 19 1
19 40 1
40 41 1
41 19 1
19 12 1
12 24 1
24 42 1
42 11 1
11 43 1
43 40 1
24 44 1
44 24 1
24 45 1
45 23 1
23 40 1
40 46 1
46 40 1
23 47 1
47 11 1
11 48 1
48 49 1
49 50 1
50 32 1
24 8 1
8 31 1
31 8 1
8 32 1
31 51 1
51 52 1
52 53 1
53 31 1
31 54 1
54 11 1
31 22 1
22 31 1
31 55 1
24 12 1
12 56 1
56 24 1
31 10 1
10 57 1
57 58 1
58 59 1
11 59 1
11 60 1
60 61 1
61 62 1
62 63 1
63 11 1
11 40 1
40 64 1
64 65 1
65 40 1
40 66 1
66 67 1
67 68 1
68 40 1
40 69 1
69 11 1
11 70 1
70 71 1
71 72 1
72 55 1
11 73 1
73 55 1
24 35 1
35 24 1
24 74 1
74 19 1
19 24 1
11 75 1
75 76 1
76 11 1
11 77 1
77 11 1
11 78 1
