4 3 60
3 4 59
8 3 36
3 8 35
3 11 35
11 3 33
34 3 32
3 34 30
13 4 19
32 3 19
3 32 19
4 13 17
3 27 16
3 48 15
27 3 14
48 3 14
3 50 14
50 3 14
4 7 11
7 4 10
14 3 9
3 14 8
42 3 7
3 42 7
3 19 6
46 3 6
3 46 6
3 47 6
47 3 6
3 7 6
7 3 6
5 3 5
17 3 5
19 3 5
28 3 5
35 34 5
3 52 5
3 17 4
21 3 4
34 35 4
3 38 4
52 3 4
3 53 4
2 3 3
4 5 3
6 4 3
4 8 3
22 4 3
3 5 3
5 28 3
3 28 3
29 3 3
38 3 3
46 42 3
42 46 3
53 3 3
5 4 2
3 13 2
3 22 2
3 23 2
2 4 2
3 25 2
3 26 2
26 3 2
28 26 2
26 28 2
28 5 2
27 28 2
3 29 2
34 36 2
37 3 2
39 3 2
44 3 2
3 45 2
1 2 1
4 6 1
3 6 1
7 6 1
8 4 1
8 9 1
9 4 1
3 10 1
10 3 1
11 12 1
12 11 1
11 5 1
5 14 1
4 14 1
3 15 1
15 3 1
14 16 1
16 3 1
8 17 1
4 18 1
18 3 1
3 20 1
20 21 1
4 21 1
23 3 1
23 22 1
22 21 1
3 24 1
24 22 1
4 2 1
2 7 1
7 2 1
3 18 1
18 2 1
25 5 1
27 5 1
28 27 1
29 30 1
30 31 1
31 30 1
30 29 1
29 32 1
32 25 1
25 32 1
32 5 1
5 32 1
32 29 1
11 33 1
33 11 1
11 29 1
5 34 1
36 37 1
3 37 1
38 5 1
5 39 1
3 39 1
3 40 1
40 41 1
41 42 1
42 43 1
43 5 1
5 44 1
3 44 1
45 3 1
45 41 1
41 46 1
46 2 1
48 34 1
36 3 1
3 35 1
3 49 1
49 34 1
19 21 1
25 3 1
3 51 1
51 5 1
52 5 1
5 8 1
53 8 1
8 2 1
