3 4 63
4 3 63
4 11 42
11 4 42
10 4 37
4 10 34
4 23 29
23 4 29
24 4 29
4 24 27
3 12 14
12 3 14
21 4 12
4 21 10
4 38 10
34 4 9
4 34 9
38 4 9
4 31 8
28 4 7
31 4 7
13 4 6
4 14 6
14 4 6
4 16 6
4 22 6
4 28 6
4 39 5
39 4 5
4 42 5
42 4 5
4 13 4
16 4 4
4 27 4
34 31 4
37 4 4
4 40 4
40 4 4
3 6 3
7 4 3
27 4 3
31 34 3
4 37 3
22 4 3
6 3 2
4 7 2
9 4 2
4 9 2
16 10 2
22 21 2
24 25 2
25 24 2
4 41 2
41 4 2
1 2 1
2 3 1
3 5 1
5 3 1
6 5 1
5 6 1
6 7 1
4 5 1
5 8 1
8 9 1
9 10 1
11 3 1
3 13 1
14 13 1
4 12 1
12 15 1
15 14 1
16 13 1
13 12 1
12 10 1
10 16 1
4 17 1
17 3 1
4 18 1
18 3 1
3 2 1
2 19 1
19 3 1
4 20 1
20 4 1
22 7 1
7 11 1
4 26 1
26 24 1
27 28 1
4 29 1
29 4 1
4 30 1
30 31 1
31 32 1
32 4 1
31 33 1
33 34 1
31 2 1
2 4 1
3 35 1
35 4 1
4 36 1
36 37 1
38 24 1
40 39 1
39 40 1
4 43 1
43 4 1
4 44 1
44 4 1
