2 8 19
8 2 14
7 8 10
2 4 8
8 7 6
4 2 5
7 2 4
4 8 4
8 55 4
10 8 3
55 8 3
8 10 2
18 7 2
8 23 2
2 7 2
8 53 2
7 55 2
59 60 2
60 59 2
4 10 2
1 2 1
2 3 1
3 4 1
4 5 1
5 2 1
4 6 1
6 7 1
8 9 1
9 2 1
8 11 1
11 8 1
7 12 1
12 13 1
13 8 1
8 14 1
14 2 1
8 15 1
15 16 1
16 4 1
8 17 1
17 7 1
8 18 1
7 18 1
8 19 1
19 8 1
8 20 1
20 21 1
21 7 1
7 22 1
22 8 1
23 8 1
8 24 1
24 8 1
23 25 1
25 7 1
8 26 1
26 27 1
27 4 1
8 28 1
28 10 1
10 29 1
29 10 1
10 30 1
30 8 1
8 31 1
31 32 1
32 21 1
21 8 1
8 33 1
33 7 1
7 33 1
33 8 1
8 34 1
34 35 1
35 36 1
36 34 1
34 10 1
10 37 1
37 8 1
8 38 1
38 2 1
8 39 1
39 8 1
8 40 1
40 7 1
7 41 1
41 7 1
7 42 1
42 43 1
43 44 1
44 45 1
45 46 1
46 2 1
8 47 1
47 2 1
8 43 1
43 46 1
46 48 1
48 2 1
8 4 1
4 49 1
49 7 1
8 50 1
50 7 1
2 51 1
51 26 1
26 52 1
52 4 1
53 8 1
53 10 1
2 9 1
9 54 1
54 8 1
2 55 1
55 7 1
4 56 1
56 8 1
55 2 1
55 4 1
8 57 1
57 7 1
55 54 1
54 2 1
8 58 1
58 8 1
8 59 1
59 7 1
10 4 1
