7 5 32
5 7 28
5 8 13
8 5 12
17 7 6
6 7 5
10 7 5
7 17 5
7 8 4
7 10 4
7 6 4
19 7 4
5 9 4
5 6 3
8 7 3
7 19 3
5 19 3
44 45 3
9 7 2
16 7 2
25 26 2
6 5 2
7 28 2
28 7 2
5 16 2
9 5 2
9 17 2
37 7 2
8 41 2
41 8 2
19 5 2
8 43 2
45 44 2
1 2 1
2 3 1
3 4 1
4 5 1
8 6 1
7 9 1
7 11 1
11 12 1
12 10 1
7 13 1
13 7 1
8 14 1
14 5 1
7 15 1
15 16 1
7 18 1
18 19 1
7 16 1
16 20 1
20 7 1
7 21 1
21 7 1
7 22 1
22 17 1
7 23 1
23 24 1
24 25 1
26 25 1
26 7 1
7 27 1
27 7 1
8 4 1
4 7 1
7 29 1
29 8 1
8 30 1
30 5 1
5 31 1
31 32 1
32 5 1
5 33 1
33 34 1
34 8 1
8 35 1
35 8 1
16 5 1
17 5 1
7 36 1
36 7 1
6 37 1
7 37 1
19 38 1
38 39 1
39 7 1
7 38 1
38 19 1
5 40 1
40 5 1
5 10 1
10 8 1
19 42 1
42 5 1
5 38 1
38 17 1
17 9 1
17 8 1
43 8 1
43 7 1
8 44 1
45 46 1
46 8 1
