6 1 40
1 6 37
1 3 29
3 1 28
7 1 20
1 7 19
3 10 8
1 11 7
11 1 6
10 1 5
14 1 5
1 14 5
17 14 5
10 3 5
5 1 4
6 3 4
14 16 4
1 26 4
26 1 4
1 5 3
1 9 3
1 10 3
12 13 3
3 6 3
14 17 3
16 14 3
7 11 3
11 7 3
1 2 2
2 1 2
1 4 2
13 12 2
16 17 2
19 14 2
21 14 2
22 1 2
1 22 2
23 1 2
10 7 2
1 23 2
3 11 2
1 28 2
28 1 2
22 6 2
4 5 1
5 6 1
6 5 1
1 8 1
8 1 1
9 4 1
4 3 1
9 1 1
11 6 1
11 12 1
13 6 1
6 11 1
11 14 1
14 3 1
1 15 1
15 1 1
1 16 1
17 4 1
4 18 1
18 19 1
14 19 1
6 20 1
20 21 1
14 21 1
14 2 1
2 21 1
21 6 1
7 22 1
22 3 1
3 7 1
7 23 1
9 5 1
5 3 1
3 24 1
24 14 1
14 7 1
7 25 1
25 24 1
24 3 1
23 7 1
7 6 1
11 3 1
1 27 1
27 1 1
14 10 1
4 1 1
14 22 1
1 29 1
29 30 1
30 14 1
10 31 1
31 10 1
1 17 1
14 32 1
32 22 1
