8 1 22
1 8 20
1 10 17
10 1 14
1 13 9
1 11 7
13 1 7
3 1 5
1 3 4
11 1 4
20 1 4
8 20 4
32 1 4
1 32 4
36 1 4
1 36 4
90 1 4
9 1 3
10 24 3
10 8 3
33 34 3
52 36 3
1 90 3
1 4 2
5 1 2
1 5 2
1 9 2
1 17 2
1 19 2
5 8 2
1 20 2
11 10 2
10 11 2
34 33 2
1 42 2
43 1 2
17 1 2
1 44 2
51 52 2
36 52 2
36 51 2
56 36 2
20 8 2
20 13 2
13 23 2
31 1 2
1 82 2
50 1 2
8 32 2
61 10 2
1 110 2
1 2 1
2 1 1
4 5 1
1 6 1
6 1 1
1 7 1
7 8 1
5 9 1
9 10 1
10 9 1
1 12 1
12 1 1
1 14 1
14 1 1
13 15 1
15 1 1
1 16 1
16 1 1
17 3 1
3 18 1
18 1 1
19 5 1
1 21 1
21 10 1
1 22 1
22 1 1
1 23 1
23 10 1
24 5 1
5 10 1
10 25 1
25 1 1
1 26 1
26 10 1
10 22 1
22 10 1
19 3 1
3 11 1
11 27 1
27 1 1
8 28 1
28 8 1
10 29 1
29 10 1
10 30 1
30 31 1
31 32 1
32 10 1
24 10 1
32 33 1
34 10 1
10 35 1
35 32 1
32 36 1
1 37 1
37 17 1
17 38 1
38 1 1
1 39 1
39 1 1
36 8 1
8 10 1
10 40 1
40 41 1
41 20 1
42 1 1
1 43 1
44 28 1
28 16 1
16 45 1
45 10 1
1 46 1
46 1 1
11 17 1
17 47 1
47 48 1
48 49 1
49 50 1
50 51 1
36 53 1
53 54 1
54 17 1
17 36 1
52 5 1
5 55 1
55 56 1
36 56 1
51 36 1
10 57 1
57 5 1
5 58 1
58 59 1
59 23 1
23 58 1
58 36 1
36 4 1
4 58 1
58 10 1
8 60 1
60 1 1
13 61 1
61 62 1
62 63 1
63 64 1
64 8 1
8 13 1
13 65 1
65 1 1
1 66 1
66 1 1
1 67 1
67 1 1
1 68 1
68 1 1
1 69 1
69 1 1
1 70 1
70 1 1
1 71 1
71 19 1
19 9 1
9 8 1
8 72 1
72 20 1
13 73 1
73 74 1
74 75 1
75 8 1
8 76 1
76 36 1
36 13 1
23 1 1
1 77 1
77 1 1
1 78 1
78 13 1
13 79 1
79 80 1
80 76 1
76 8 1
1 31 1
1 81 1
81 1 1
82 43 1
1 83 1
83 17 1
42 50 1
1 50 1
11 13 1
13 32 1
32 84 1
84 32 1
32 11 1
11 32 1
32 13 1
13 10 1
10 5 1
32 85 1
85 32 1
32 86 1
86 32 1
32 8 1
8 3 1
23 14 1
14 13 1
1 87 1
87 1 1
10 88 1
88 1 1
11 89 1
89 90 1
1 91 1
91 1 1
82 1 1
13 92 1
92 13 1
1 93 1
93 17 1
17 93 1
93 94 1
94 1 1
5 36 1
36 3 1
3 73 1
73 20 1
1 95 1
95 1 1
13 96 1
96 17 1
17 8 1
8 63 1
63 5 1
36 61 1
24 8 1
1 97 1
97 98 1
98 1 1
10 31 1
10 99 1
99 100 1
100 1 1
8 101 1
101 102 1
102 1 1
10 103 1
103 1 1
1 29 1
29 8 1
8 104 1
104 105 1
105 20 1
20 106 1
106 107 1
107 10 1
8 108 1
108 8 1
44 8 1
8 11 1
11 8 1
1 52 1
52 17 1
17 109 1
109 61 1
110 1 1
110 111 1
111 1 1
4 1 1
20 112 1
112 1 1
10 113 1
113 114 1
114 1 1
1 115 1
115 1 1
