3 7 44
7 3 40
3 6 29
6 3 28
3 18 27
18 3 25
11 6 23
6 11 23
10 7 22
3 10 20
10 3 20
7 10 19
12 3 18
3 12 16
7 12 12
18 10 12
10 18 10
18 7 10
12 7 8
7 6 6
6 7 6
11 3 6
3 11 6
17 11 6
12 10 6
7 18 6
10 12 5
2 3 4
3 2 4
11 10 4
17 6 4
10 11 3
11 12 3
7 11 2
12 6 2
11 15 2
15 11 2
19 12 2
3 17 2
6 17 2
18 12 2
6 12 2
7 17 2
12 18 2
1 2 1
2 4 1
4 5 1
5 6 1
6 8 1
8 3 1
6 9 1
9 10 1
12 11 1
11 7 1
6 13 1
13 3 1
11 14 1
14 11 1
11 16 1
16 6 1
11 17 1
17 18 1
18 19 1
12 19 1
12 20 1
20 3 1
12 21 1
21 10 1
10 22 1
22 17 1
6 23 1
23 11 1
11 24 1
24 6 1
17 25 1
25 18 1
12 26 1
26 6 1
6 27 1
27 11 1
10 28 1
28 12 1
6 29 1
29 30 1
30 17 1
6 31 1
31 32 1
32 11 1
3 33 1
33 11 1
7 25 1
25 3 1
3 34 1
34 25 1
25 34 1
34 17 1
6 35 1
35 3 1
11 18 1
7 36 1
36 37 1
37 38 1
38 6 1
12 14 1
14 38 1
38 39 1
39 40 1
40 17 1
3 41 1
41 3 1
6 18 1
7 42 1
42 18 1
18 43 1
43 10 1
11 44 1
44 18 1
10 45 1
45 3 1
6 46 1
46 47 1
47 3 1
7 48 1
48 3 1
10 17 1
11 49 1
49 50 1
50 51 1
51 52 1
52 3 1
18 53 1
53 18 1
18 54 1
54 18 1
3 55 1
55 56 1
56 7 1
7 57 1
57 3 1
3 58 1
58 18 1
18 37 1
37 17 1
17 59 1
59 6 1
11 60 1
60 10 1
12 61 1
61 3 1
11 62 1
62 3 1
7 63 1
63 7 1
3 64 1
64 6 1
10 65 1
65 11 1
11 66 1
66 3 1
10 6 1
6 10 1
10 67 1
67 68 1
68 10 1
