13 14 36
14 13 34
12 5 30
5 12 29
4 5 21
5 4 17
17 14 17
14 17 16
13 31 13
31 13 13
10 9 12
5 14 12
14 5 11
23 12 10
12 23 10
20 5 9
5 20 9
35 36 9
8 5 8
25 13 8
13 25 8
5 8 7
5 30 7
36 35 7
9 8 6
30 5 6
9 10 5
8 10 5
5 11 5
12 10 5
8 12 5
36 12 5
10 8 4
11 5 4
10 12 4
19 20 4
12 36 4
5 6 3
6 7 3
7 6 3
6 5 3
5 10 3
12 8 3
5 19 3
14 25 3
25 14 3
8 9 2
9 5 2
11 12 2
5 13 2
14 9 2
20 19 2
20 4 2
12 24 2
24 12 2
14 26 2
26 14 2
13 32 2
32 14 2
33 5 2
12 35 2
1 2 1
2 3 1
3 4 1
7 5 1
5 7 1
12 11 1
14 15 1
15 16 1
16 13 1
14 18 1
18 14 1
9 12 1
12 4 1
20 21 1
21 20 1
19 4 1
4 12 1
12 22 1
22 17 1
14 23 1
23 24 1
24 23 1
23 25 1
26 27 1
27 10 1
9 27 1
27 28 1
28 10 1
10 29 1
29 10 1
12 14 1
9 14 1
14 27 1
27 26 1
13 27 1
27 13 1
13 5 1
30 12 1
12 13 1
14 32 1
14 4 1
4 33 1
5 33 1
14 12 1
12 34 1
34 5 1
32 13 1
13 35 1
35 12 1
36 13 1
