2 3 124
3 2 122
2 9 84
9 2 83
2 4 9
2 12 9
12 2 9
4 2 8
5 2 8
3 34 8
2 32 7
32 2 6
34 3 6
2 5 5
2 21 5
21 2 5
2 23 5
2 6 4
9 5 4
2 19 4
20 2 4
2 45 4
6 2 3
2 17 3
17 2 3
2 20 3
2 22 3
22 2 3
9 3 3
45 2 3
49 2 3
2 49 3
23 2 3
2 13 2
5 9 2
13 2 2
24 25 2
34 2 2
19 2 2
47 2 2
2 47 2
2 51 2
51 2 2
1 2 1
4 5 1
6 7 1
7 5 1
5 8 1
8 2 1
2 10 1
10 2 1
2 11 1
11 2 1
13 5 1
5 13 1
9 14 1
14 2 1
2 15 1
15 2 1
2 16 1
16 2 1
2 18 1
18 2 1
19 3 1
3 20 1
23 24 1
25 24 1
25 26 1
26 27 1
27 25 1
25 28 1
28 3 1
2 29 1
29 2 1
9 30 1
30 9 1
3 31 1
31 2 1
32 33 1
33 2 1
3 35 1
35 3 1
2 36 1
36 9 1
3 37 1
37 38 1
38 39 1
39 2 1
4 3 1
3 39 1
39 3 1
3 40 1
40 2 1
3 9 1
3 41 1
41 2 1
2 42 1
42 4 1
2 43 1
43 44 1
44 2 1
45 9 1
2 46 1
46 9 1
19 47 1
47 48 1
48 49 1
49 50 1
50 2 1
2 52 1
52 2 1
23 9 1
2 53 1
53 2 1
2 54 1
54 2 1
2 55 1
