7 3 61
3 7 58
7 2 22
2 7 21
2 3 18
3 2 16
56 2 15
2 56 14
7 12 11
12 7 11
3 12 8
12 3 8
7 95 7
95 7 7
2 17 5
17 2 5
59 3 4
59 7 4
2 12 4
3 61 3
12 2 3
2 32 2
37 38 2
2 40 2
3 8 2
45 2 2
51 7 2
53 2 2
2 59 2
7 59 2
61 7 2
25 7 2
3 59 2
7 82 2
82 3 2
2 66 2
66 2 2
56 12 2
1 2 1
3 4 1
4 2 1
2 5 1
5 3 1
3 6 1
6 5 1
5 7 1
7 8 1
8 7 1
7 9 1
9 7 1
7 10 1
10 11 1
11 10 1
10 3 1
3 13 1
13 12 1
2 14 1
14 15 1
15 14 1
14 2 1
2 16 1
16 2 1
17 3 1
2 18 1
18 3 1
12 19 1
19 3 1
12 9 1
9 12 1
3 20 1
20 3 1
3 21 1
21 22 1
22 3 1
3 23 1
23 3 1
3 24 1
24 7 1
3 25 1
25 2 1
2 26 1
26 2 1
3 27 1
27 2 1
2 28 1
28 3 1
3 29 1
29 3 1
3 30 1
30 3 1
3 31 1
31 3 1
32 3 1
3 33 1
33 3 1
3 34 1
34 3 1
3 35 1
35 7 1
7 5 1
5 36 1
36 3 1
3 37 1
38 37 1
37 33 1
33 37 1
38 39 1
39 2 1
40 41 1
41 2 1
2 42 1
42 2 1
2 9 1
9 2 1
2 41 1
41 3 1
8 3 1
7 43 1
43 7 1
7 44 1
44 7 1
2 45 1
2 46 1
46 2 1
2 47 1
47 45 1
2 48 1
48 2 1
3 49 1
49 7 1
7 50 1
50 2 1
7 51 1
3 52 1
52 12 1
12 40 1
40 53 1
2 54 1
54 2 1
40 2 1
2 55 1
55 56 1
56 57 1
57 56 1
2 58 1
58 2 1
7 60 1
60 3 1
3 51 1
7 61 1
3 62 1
62 3 1
3 63 1
63 64 1
64 59 1
3 65 1
65 66 1
66 65 1
65 22 1
22 67 1
67 7 1
7 68 1
68 25 1
7 69 1
69 7 1
7 20 1
20 7 1
7 70 1
70 7 1
7 71 1
71 3 1
3 72 1
72 3 1
61 73 1
73 3 1
7 74 1
74 7 1
7 75 1
75 59 1
3 76 1
76 77 1
77 78 1
78 79 1
79 80 1
80 77 1
77 3 1
3 81 1
81 17 1
82 83 1
83 3 1
3 83 1
83 84 1
84 85 1
85 2 1
7 38 1
38 86 1
86 87 1
87 53 1
2 88 1
88 12 1
12 89 1
89 12 1
12 73 1
73 2 1
2 90 1
90 41 1
41 91 1
91 2 1
2 91 1
91 56 1
3 9 1
9 3 1
7 92 1
92 93 1
93 7 1
7 94 1
94 7 1
95 96 1
96 95 1
12 25 1
25 97 1
97 25 1
7 98 1
98 7 1
3 99 1
99 100 1
100 7 1
7 73 1
73 7 1
2 101 1
101 2 1
2 102 1
102 56 1
56 103 1
103 56 1
2 89 1
89 2 1
56 104 1
104 2 1
2 95 1
95 2 1
56 50 1
50 95 1
95 56 1
3 105 1
105 7 1
3 106 1
106 3 1
3 107 1
107 7 1
7 108 1
108 7 1
7 109 1
109 110 1
110 56 1
12 5 1
5 75 1
75 7 1
7 72 1
72 7 1
7 111 1
111 7 1
3 82 1
61 5 1
5 67 1
67 25 1
25 45 1
45 7 1
7 25 1
25 61 1
61 2 1
56 112 1
112 25 1
25 36 1
36 56 1
2 113 1
113 7 1
12 114 1
114 2 1
7 115 1
115 7 1
7 102 1
102 7 1
7 24 1
24 2 1
32 116 1
116 117 1
117 2 1
8 2 1
2 61 1
61 3 1
3 118 1
118 3 1
