15 8 41
8 15 37
14 8 14
11 8 13
8 11 12
14 15 9
8 14 9
8 22 8
15 14 8
14 19 7
8 45 6
46 8 5
21 8 4
45 8 4
8 46 4
45 46 4
19 14 4
15 45 4
7 8 3
8 36 3
22 8 3
8 19 3
45 15 3
19 15 3
11 15 2
8 21 2
26 8 2
8 33 2
33 14 2
19 11 2
11 19 2
15 22 2
19 8 2
51 9 2
60 11 2
15 65 2
38 14 2
72 8 2
45 21 2
46 45 2
15 46 2
15 19 2
22 15 2
95 96 2
117 8 2
135 15 2
1 2 1
2 3 1
3 4 1
4 5 1
5 6 1
6 7 1
8 6 1
6 9 1
9 7 1
8 10 1
10 8 1
8 4 1
4 8 1
11 12 1
12 13 1
13 14 1
8 16 1
16 17 1
17 8 1
8 18 1
18 17 1
17 9 1
9 17 1
17 19 1
19 12 1
12 11 1
11 20 1
20 11 1
22 23 1
23 8 1
8 24 1
24 8 1
8 12 1
12 8 1
8 25 1
25 26 1
8 27 1
27 28 1
28 11 1
8 29 1
29 8 1
8 30 1
30 31 1
31 8 1
8 32 1
32 20 1
20 26 1
8 26 1
26 11 1
8 34 1
34 35 1
35 8 1
36 9 1
9 14 1
14 37 1
37 8 1
8 38 1
38 33 1
33 19 1
19 39 1
39 8 1
11 14 1
14 11 1
8 40 1
40 19 1
19 41 1
41 14 1
36 42 1
42 43 1
43 8 1
22 44 1
44 45 1
45 11 1
11 45 1
45 36 1
36 15 1
36 8 1
8 47 1
47 8 1
8 48 1
48 8 1
8 49 1
49 8 1
22 50 1
50 14 1
19 51 1
9 8 1
8 51 1
9 11 1
15 11 1
8 52 1
52 8 1
11 53 1
53 11 1
11 54 1
54 11 1
11 21 1
22 4 1
4 55 1
55 8 1
11 56 1
56 57 1
57 11 1
11 58 1
58 59 1
59 60 1
11 60 1
11 61 1
61 11 1
8 62 1
62 8 1
8 63 1
63 15 1
8 64 1
64 8 1
65 8 1
8 66 1
66 15 1
65 66 1
66 8 1
8 67 1
67 15 1
8 68 1
68 22 1
22 38 1
38 67 1
67 38 1
14 38 1
15 38 1
38 8 1
8 7 1
8 69 1
69 70 1
70 71 1
71 72 1
8 72 1
8 73 1
73 46 1
21 46 1
8 74 1
74 21 1
21 45 1
21 75 1
75 76 1
76 77 1
77 21 1
21 78 1
78 21 1
21 79 1
79 80 1
80 21 1
8 81 1
81 82 1
82 83 1
83 8 1
8 84 1
84 21 1
21 82 1
82 85 1
85 8 1
19 86 1
86 8 1
22 45 1
46 15 1
15 87 1
87 14 1
14 88 1
88 19 1
19 89 1
89 14 1
19 90 1
90 19 1
8 91 1
91 15 1
15 92 1
92 14 1
14 93 1
93 14 1
14 64 1
64 14 1
19 94 1
94 95 1
96 97 1
97 95 1
96 98 1
98 95 1
95 15 1
15 99 1
99 9 1
9 100 1
100 101 1
101 19 1
19 98 1
98 14 1
8 102 1
102 22 1
8 103 1
103 8 1
8 104 1
104 105 1
105 8 1
8 106 1
106 15 1
45 107 1
107 8 1
46 22 1
22 108 1
108 15 1
15 109 1
109 15 1
15 110 1
110 111 1
111 15 1
15 112 1
112 113 1
113 114 1
114 8 1
8 115 1
115 116 1
116 15 1
15 117 1
117 15 1
8 118 1
118 119 1
119 8 1
8 120 1
120 15 1
46 121 1
121 122 1
122 123 1
123 124 1
124 125 1
125 126 1
126 127 1
127 117 1
8 128 1
128 45 1
46 117 1
8 129 1
129 8 1
22 62 1
62 117 1
117 130 1
130 8 1
45 67 1
67 8 1
8 131 1
131 8 1
46 132 1
132 62 1
62 133 1
133 134 1
134 135 1
15 136 1
136 135 1
15 135 1
135 6 1
6 15 1
15 137 1
137 138 1
138 15 1
15 139 1
139 15 1
