28 22 3
22 29 2
44 47 2
47 44 2
74 28 2
76 22 2
1 2 1
2 3 1
3 4 1
4 5 1
5 6 1
6 7 1
7 8 1
8 9 1
9 5 1
5 10 1
10 11 1
11 12 1
12 13 1
13 14 1
14 15 1
15 16 1
16 17 1
17 18 1
18 19 1
19 20 1
20 18 1
18 21 1
21 18 1
18 22 1
22 23 1
23 24 1
24 25 1
25 26 1
26 22 1
22 27 1
27 28 1
29 30 1
30 31 1
31 32 1
32 15 1
15 25 1
25 33 1
33 34 1
34 35 1
35 36 1
36 37 1
37 38 1
38 39 1
39 40 1
40 41 1
41 42 1
42 15 1
15 43 1
43 29 1
29 44 1
44 45 1
45 46 1
46 47 1
47 48 1
48 47 1
47 49 1
49 47 1
47 50 1
50 51 1
51 52 1
52 53 1
53 54 1
54 55 1
55 56 1
56 28 1
28 57 1
57 28 1
28 58 1
58 28 1
28 59 1
59 60 1
60 28 1
22 61 1
61 22 1
22 28 1
28 62 1
62 63 1
63 64 1
64 29 1
29 65 1
65 25 1
25 44 1
44 66 1
66 15 1
15 67 1
67 25 1
25 22 1
22 68 1
68 69 1
69 70 1
70 29 1
29 71 1
71 72 1
72 73 1
73 74 1
28 74 1
28 75 1
75 76 1
29 28 1
22 77 1
77 78 1
78 22 1
22 79 1
79 80 1
80 81 1
81 82 1
82 83 1
83 84 1
84 85 1
85 86 1
86 87 1
87 88 1
88 86 1
86 89 1
89 90 1
90 86 1
86 91 1
91 92 1
92 93 1
93 47 1
47 18 1
18 94 1
94 95 1
95 15 1
15 96 1
96 76 1
22 97 1
