52 49 21
49 52 20
49 58 13
58 49 13
51 49 10
49 62 10
49 51 9
62 49 8
82 49 8
49 50 6
50 49 5
49 57 5
57 49 5
60 49 5
49 60 5
62 58 5
49 126 5
28 32 4
32 33 4
49 55 4
58 62 4
63 49 4
49 82 4
97 98 4
98 97 4
110 62 4
62 110 4
126 49 4
1 2 3
2 1 3
16 17 3
17 16 3
55 49 3
104 62 3
122 49 3
1 5 2
1 7 2
7 1 2
1 16 2
1 22 2
22 8 2
33 32 2
32 28 2
49 53 2
65 49 2
81 65 2
85 49 2
49 87 2
49 63 2
62 104 2
97 115 2
49 122 2
1 3 1
3 1 1
1 4 1
4 1 1
5 6 1
6 1 1
5 1 1
1 8 1
8 9 1
9 10 1
10 9 1
9 11 1
11 1 1
1 12 1
12 1 1
1 13 1
13 14 1
14 1 1
1 15 1
15 16 1
16 1 1
16 18 1
18 19 1
19 1 1
16 20 1
20 1 1
1 21 1
21 1 1
22 1 1
1 20 1
20 23 1
23 22 1
8 22 1
8 1 1
1 9 1
9 24 1
24 9 1
9 1 1
1 25 1
25 1 1
1 26 1
26 1 1
1 27 1
27 28 1
28 29 1
29 1 1
22 28 1
28 22 1
22 30 1
30 31 1
31 28 1
33 34 1
34 35 1
35 36 1
36 37 1
37 38 1
38 34 1
34 39 1
39 40 1
40 41 1
41 35 1
35 42 1
42 43 1
43 44 1
44 45 1
45 33 1
33 46 1
46 33 1
33 47 1
47 28 1
33 48 1
48 28 1
28 49 1
50 51 1
49 40 1
40 49 1
52 53 1
53 54 1
54 52 1
53 49 1
49 56 1
56 49 1
58 59 1
59 60 1
60 61 1
61 49 1
62 63 1
49 32 1
32 64 1
64 65 1
65 66 1
66 65 1
49 65 1
49 67 1
67 49 1
49 68 1
68 49 1
51 57 1
49 69 1
69 49 1
49 70 1
70 71 1
71 49 1
62 72 1
72 49 1
58 73 1
73 58 1
62 74 1
74 75 1
75 76 1
76 77 1
77 78 1
78 52 1
49 44 1
44 52 1
62 79 1
79 58 1
49 80 1
80 65 1
65 80 1
80 81 1
65 81 1
65 82 1
82 83 1
83 82 1
82 84 1
84 85 1
57 86 1
86 51 1
87 49 1
87 63 1
49 88 1
88 49 1
49 89 1
89 90 1
90 82 1
49 91 1
91 82 1
49 92 1
92 82 1
49 93 1
93 94 1
94 49 1
49 95 1
95 96 1
96 97 1
97 99 1
99 85 1
62 100 1
100 62 1
62 101 1
101 49 1
49 102 1
102 62 1
49 103 1
103 104 1
49 105 1
105 82 1
82 106 1
106 104 1
104 107 1
107 62 1
58 104 1
104 49 1
49 108 1
108 62 1
62 86 1
86 109 1
109 49 1
49 110 1
110 111 1
111 112 1
112 113 1
113 111 1
111 110 1
110 112 1
112 62 1
62 114 1
114 97 1
115 97 1
97 114 1
114 49 1
49 116 1
116 49 1
49 111 1
111 49 1
53 117 1
117 118 1
118 119 1
119 118 1
118 66 1
66 118 1
118 49 1
55 120 1
120 8 1
8 49 1
49 121 1
121 122 1
49 123 1
123 49 1
49 124 1
124 125 1
125 49 1
126 62 1
49 127 1
127 49 1
49 128 1
128 49 1
49 120 1
120 49 1
49 129 1
129 130 1
130 97 1
115 131 1
131 58 1
58 76 1
76 49 1
49 132 1
132 49 1
52 82 1
49 133 1
133 86 1
86 101 1
101 67 1
67 134 1
134 135 1
135 136 1
136 35 1
35 137 1
137 35 1
35 77 1
