47 11 14
11 47 13
11 8 8
34 20 7
8 11 6
20 18 6
18 20 6
20 34 5
45 11 4
11 45 4
11 17 3
17 11 3
20 11 3
11 20 3
20 8 3
31 30 3
7 8 2
11 15 2
11 18 2
18 31 2
31 18 2
22 11 2
11 41 2
18 11 2
11 31 2
30 31 2
51 11 2
8 47 2
47 8 2
1 2 1
2 3 1
3 4 1
4 5 1
5 6 1
6 7 1
8 9 1
9 7 1
7 10 1
10 11 1
11 12 1
12 11 1
8 13 1
13 14 1
14 11 1
15 11 1
8 16 1
16 11 1
18 19 1
19 20 1
18 21 1
21 20 1
20 22 1
22 20 1
8 18 1
20 23 1
23 24 1
24 23 1
23 25 1
25 26 1
26 11 1
11 27 1
27 11 1
11 28 1
28 29 1
29 11 1
11 30 1
30 22 1
22 30 1
30 17 1
17 18 1
18 8 1
8 32 1
32 8 1
8 7 1
7 33 1
33 34 1
20 35 1
35 20 1
8 20 1
8 34 1
20 36 1
36 37 1
37 20 1
20 38 1
38 39 1
39 22 1
11 40 1
40 11 1
41 18 1
30 18 1
18 30 1
30 11 1
31 42 1
42 43 1
43 22 1
11 22 1
22 44 1
44 13 1
13 45 1
45 46 1
46 45 1
45 44 1
44 41 1
41 11 1
41 45 1
11 48 1
48 47 1
11 49 1
49 50 1
50 47 1
11 51 1
11 52 1
52 11 1
45 47 1
47 53 1
53 7 1
47 54 1
54 49 1
49 47 1
47 55 1
55 47 1
47 51 1
11 56 1
56 57 1
57 58 1
58 59 1
59 60 1
60 61 1
61 11 1
47 62 1
62 63 1
63 49 1
49 64 1
64 11 1
11 65 1
65 66 1
66 67 1
67 15 1
15 55 1
55 16 1
16 68 1
68 11 1
15 69 1
69 47 1
