8 25 57
25 8 53
13 8 39
8 13 33
2 4 29
4 2 25
2 8 24
8 2 22
11 2 16
13 2 16
2 11 13
2 13 13
13 11 11
2 25 11
11 13 10
25 13 9
25 2 8
2 3 5
3 2 5
25 11 5
11 8 5
13 25 5
8 9 4
9 13 4
8 11 4
4 25 4
19 13 3
19 8 3
8 19 3
4 11 3
9 8 2
11 4 2
13 19 2
20 13 2
13 9 2
8 4 2
1 2 1
4 5 1
5 3 1
3 6 1
6 4 1
2 7 1
7 8 1
8 10 1
10 11 1
11 12 1
12 11 1
11 14 1
14 13 1
2 15 1
15 4 1
4 16 1
16 17 1
17 18 1
18 19 1
8 20 1
13 21 1
21 13 1
13 22 1
22 13 1
8 23 1
23 8 1
8 24 1
24 8 1
4 26 1
26 25 1
25 27 1
27 2 1
11 27 1
27 8 1
13 4 1
8 28 1
28 13 1
2 9 1
9 4 1
4 13 1
4 29 1
29 20 1
25 4 1
13 30 1
30 2 1
25 31 1
31 2 1
25 32 1
32 25 1
4 8 1
25 33 1
33 2 1
8 34 1
34 2 1
11 25 1
