6 7 131
7 6 126
13 6 33
6 13 30
14 13 22
13 14 21
17 13 14
6 18 13
13 18 13
18 13 12
13 17 12
14 7 11
7 18 11
18 6 11
14 17 10
23 16 10
16 23 10
18 7 9
16 13 8
7 13 8
18 14 8
6 14 8
17 14 8
18 23 8
7 14 7
23 18 7
15 6 6
13 16 6
14 18 6
14 6 6
13 7 6
6 15 6
20 6 6
18 20 6
17 15 5
17 6 5
6 17 5
7 17 5
13 20 5
20 18 5
30 13 5
14 15 4
15 13 4
13 15 4
15 14 4
15 17 4
18 19 4
18 17 4
20 7 4
7 20 4
20 13 4
13 25 4
25 13 4
13 26 4
13 30 4
17 18 3
7 5 3
22 6 3
17 7 3
19 13 3
6 23 3
16 6 3
6 16 3
20 14 3
6 20 3
13 19 3
30 7 3
7 30 3
5 6 2
10 7 2
7 11 2
11 10 2
12 7 2
7 12 2
19 17 2
15 18 2
19 18 2
21 22 2
14 19 2
23 14 2
16 24 2
23 6 2
14 16 2
14 24 2
23 17 2
17 23 2
14 30 2
30 14 2
30 6 2
6 30 2
1 2 1
2 3 1
3 4 1
4 5 1
6 5 1
5 8 1
8 9 1
9 10 1
10 12 1
12 6 1
19 6 1
17 5 1
5 7 1
5 20 1
6 21 1
6 22 1
17 19 1
19 15 1
24 16 1
26 14 1
7 24 1
24 27 1
27 24 1
24 13 1
26 13 1
26 6 1
7 16 1
23 28 1
28 13 1
17 20 1
14 20 1
26 20 1
24 28 1
28 14 1
13 23 1
24 14 1
24 23 1
23 20 1
20 16 1
14 29 1
29 14 1
16 22 1
22 14 1
19 14 1
17 30 1
13 21 1
6 31 1
31 32 1
32 33 1
33 31 1
31 34 1
34 7 1
