17 3 85
3 17 77
17 18 64
18 17 64
9 3 36
3 9 32
20 3 28
3 20 27
15 17 20
3 31 19
31 3 19
17 15 16
20 17 13
3 12 12
12 3 12
3 15 11
15 3 11
17 20 11
31 9 10
44 3 9
9 31 8
16 17 7
17 16 6
18 15 6
15 18 6
9 12 6
17 31 6
15 20 6
47 3 6
18 3 5
31 17 5
17 44 5
3 47 5
3 44 5
31 12 4
20 47 4
17 58 4
3 61 4
61 3 4
3 18 4
3 10 3
12 9 3
12 31 3
9 17 3
9 32 3
32 9 3
36 9 3
17 52 3
31 7 3
20 18 3
44 20 3
20 15 3
89 86 3
3 91 3
3 7 2
3 24 2
24 17 2
3 25 2
26 3 2
10 3 2
3 29 2
29 3 2
18 9 2
9 33 2
33 9 2
33 39 2
9 36 2
3 42 2
44 15 2
3 48 2
52 17 2
52 20 2
47 17 2
17 9 2
7 20 2
58 17 2
44 18 2
44 31 2
44 17 2
20 44 2
15 44 2
17 80 2
86 3 2
86 31 2
86 44 2
18 98 2
1 2 1
2 3 1
3 4 1
4 5 1
5 6 1
6 3 1
7 3 1
3 8 1
8 3 1
9 10 1
10 11 1
11 12 1
12 13 1
13 14 1
14 9 1
9 15 1
15 16 1
16 10 1
10 16 1
18 19 1
19 18 1
18 20 1
20 21 1
21 20 1
3 22 1
22 15 1
17 23 1
23 3 1
17 24 1
24 3 1
25 3 1
3 26 1
3 27 1
27 10 1
25 26 1
3 28 1
28 17 1
10 9 1
12 30 1
30 9 1
33 34 1
34 33 1
9 35 1
35 33 1
33 36 1
9 37 1
37 38 1
38 33 1
39 33 1
39 40 1
40 36 1
36 40 1
40 31 1
12 18 1
3 41 1
41 20 1
20 41 1
41 3 1
10 17 1
42 15 1
31 15 1
3 43 1
43 3 1
20 9 1
3 45 1
45 3 1
3 46 1
46 17 1
42 9 1
48 20 1
47 20 1
3 49 1
49 3 1
48 3 1
3 50 1
50 20 1
17 51 1
51 17 1
20 52 1
3 53 1
53 54 1
54 20 1
17 47 1
17 45 1
45 17 1
7 9 1
7 55 1
55 3 1
20 55 1
55 20 1
47 7 1
7 31 1
20 31 1
3 56 1
56 9 1
17 57 1
57 17 1
58 10 1
10 58 1
58 59 1
59 60 1
60 17 1
58 18 1
12 10 1
10 31 1
9 14 1
14 3 1
31 61 1
61 9 1
3 62 1
62 63 1
63 17 1
3 64 1
64 65 1
65 66 1
66 18 1
18 67 1
67 44 1
20 12 1
12 20 1
31 68 1
68 44 1
12 69 1
69 12 1
12 70 1
70 20 1
3 71 1
71 44 1
17 72 1
72 17 1
3 73 1
73 3 1
3 23 1
23 74 1
74 15 1
18 75 1
75 20 1
3 76 1
76 20 1
12 58 1
58 44 1
20 77 1
77 3 1
17 73 1
73 17 1
17 78 1
78 31 1
20 79 1
79 80 1
80 3 1
3 81 1
81 44 1
44 12 1
12 17 1
20 82 1
82 15 1
3 80 1
80 15 1
80 44 1
80 31 1
3 83 1
83 17 1
15 7 1
7 84 1
84 17 1
44 85 1
85 12 1
31 86 1
31 87 1
87 17 1
17 88 1
88 86 1
3 89 1
86 9 1
9 89 1
86 90 1
90 91 1
91 31 1
91 89 1
91 92 1
92 15 1
91 86 1
86 20 1
20 93 1
93 94 1
94 40 1
40 15 1
15 86 1
31 95 1
95 31 1
31 96 1
96 97 1
97 86 1
98 99 1
99 18 1
18 91 1
91 99 1
99 12 1
12 86 1
3 98 1
98 100 1
100 15 1
98 20 1
20 40 1
40 17 1
3 101 1
101 28 1
28 3 1
