4 3 149
3 4 143
3 16 49
16 3 47
3 11 38
11 3 36
3 7 30
7 3 30
8 3 30
3 8 29
3 9 23
9 3 22
23 3 13
3 17 12
17 3 11
18 4 10
3 23 9
4 18 8
33 3 8
3 18 7
3 21 7
21 3 7
3 35 7
3 20 6
3 33 6
35 3 6
12 3 5
11 16 5
16 11 5
18 3 5
20 3 5
28 3 5
36 3 5
3 36 5
3 12 4
11 4 4
16 28 4
3 28 4
45 3 4
3 10 3
4 11 3
9 23 3
28 16 3
10 24 3
3 42 3
3 45 3
4 45 3
45 4 3
17 16 2
22 23 2
24 9 2
3 31 2
31 3 2
24 4 2
3 34 2
34 33 2
3 41 2
41 3 2
42 3 2
43 3 2
3 44 2
46 47 2
47 46 2
1 2 1
2 3 1
4 5 1
5 3 1
3 5 1
5 6 1
6 3 1
8 4 1
10 3 1
11 12 1
3 13 1
13 3 1
3 14 1
14 3 1
11 15 1
15 11 1
3 15 1
15 3 1
11 17 1
17 11 1
16 17 1
3 19 1
19 9 1
9 20 1
20 21 1
21 22 1
3 24 1
9 22 1
23 22 1
22 3 1
20 9 1
3 25 1
25 26 1
26 24 1
3 27 1
27 16 1
16 29 1
29 30 1
30 3 1
16 30 1
30 29 1
29 3 1
16 9 1
24 10 1
3 32 1
32 8 1
35 36 1
36 37 1
37 3 1
3 38 1
38 3 1
3 39 1
39 40 1
40 3 1
42 43 1
3 43 1
44 3 1
44 45 1
3 46 1
46 4 1
3 48 1
48 3 1
3 49 1
49 3 1
9 8 1
3 1 1
