17 7 18
9 19 16
19 9 16
9 14 15
7 17 15
9 7 14
14 9 14
7 9 12
9 10 10
10 9 10
16 9 10
19 16 10
7 12 8
21 7 8
16 19 8
26 9 8
13 9 7
9 16 7
9 26 7
13 7 6
9 13 6
7 21 6
9 21 6
12 7 5
21 9 5
7 13 4
12 13 4
19 14 4
10 11 3
9 15 3
15 16 3
7 20 3
20 7 3
19 10 3
10 19 3
14 16 3
10 14 3
20 17 3
3 4 2
11 10 2
11 7 2
7 10 2
16 15 2
16 10 2
30 17 2
7 30 2
14 19 2
14 31 2
7 37 2
37 17 2
17 20 2
17 36 2
36 17 2
9 12 2
10 26 2
26 42 2
1 2 1
2 3 1
4 3 1
4 5 1
5 6 1
6 7 1
7 8 1
8 9 1
15 17 1
17 18 1
18 15 1
7 22 1
22 23 1
23 17 1
17 24 1
24 17 1
17 25 1
25 9 1
16 27 1
27 9 1
17 28 1
28 29 1
29 28 1
28 30 1
30 21 1
17 9 1
9 17 1
17 21 1
21 16 1
16 14 1
14 10 1
9 31 1
31 10 1
10 16 1
9 32 1
32 19 1
14 33 1
33 14 1
16 31 1
31 16 1
31 34 1
34 10 1
10 31 1
31 19 1
15 9 1
15 19 1
19 7 1
7 14 1
31 9 1
14 17 1
7 35 1
35 36 1
36 7 1
37 20 1
7 38 1
38 19 1
19 17 1
17 37 1
14 39 1
39 19 1
7 40 1
40 7 1
12 41 1
41 12 1
12 9 1
13 3 1
3 11 1
42 26 1
42 38 1
38 10 1
26 19 1
16 26 1
14 43 1
43 14 1
17 44 1
44 45 1
