43 2 72
2 43 67
2 5 49
5 2 49
2 12 22
12 2 20
20 21 15
21 20 11
2 74 11
23 24 10
2 8 9
20 43 9
74 2 9
8 2 8
43 20 8
2 6 7
6 2 7
74 20 6
74 43 6
8 5 5
2 20 5
24 23 5
43 74 5
2 4 4
4 2 4
10 2 4
20 2 4
21 74 4
2 10 3
5 10 3
5 8 3
2 23 3
24 2 3
28 2 3
2 56 3
56 23 3
20 74 3
2 3 2
10 5 2
12 13 2
29 30 2
30 31 2
2 28 2
45 2 2
2 51 2
23 54 2
54 2 2
2 27 2
23 2 2
43 67 2
67 2 2
43 5 2
74 78 2
78 43 2
1 2 1
3 2 1
5 6 1
6 7 1
7 2 1
2 9 1
9 8 1
10 11 1
11 5 1
13 12 1
13 2 1
2 14 1
14 12 1
2 15 1
15 2 1
3 4 1
2 16 1
16 17 1
17 2 1
2 18 1
18 2 1
2 19 1
19 2 1
21 22 1
22 2 1
24 25 1
25 2 1
2 26 1
26 23 1
24 27 1
27 28 1
28 29 1
31 28 1
2 32 1
32 2 1
2 33 1
33 34 1
34 35 1
35 36 1
36 2 1
2 37 1
37 2 1
2 38 1
38 2 1
2 39 1
39 40 1
40 41 1
41 42 1
42 43 1
2 44 1
44 45 1
2 45 1
4 5 1
5 46 1
46 10 1
2 47 1
47 2 1
5 48 1
48 2 1
2 49 1
49 43 1
43 21 1
21 50 1
50 20 1
51 2 1
2 52 1
52 23 1
24 53 1
53 23 1
27 2 1
5 55 1
55 23 1
24 57 1
57 2 1
2 58 1
58 2 1
23 25 1
25 56 1
56 24 1
2 59 1
59 24 1
2 60 1
60 61 1
61 60 1
60 2 1
27 23 1
23 62 1
62 63 1
63 23 1
23 12 1
12 64 1
64 12 1
51 12 1
2 65 1
65 30 1
31 29 1
30 43 1
21 24 1
24 43 1
43 66 1
66 2 1
2 68 1
68 69 1
69 35 1
35 2 1
2 70 1
70 43 1
12 6 1
6 5 1
5 71 1
71 16 1
16 8 1
8 72 1
72 20 1
20 73 1
73 21 1
20 75 1
75 2 1
5 43 1
43 10 1
10 76 1
76 43 1
2 77 1
77 20 1
20 8 1
8 43 1
74 21 1
2 21 1
74 34 1
34 2 1
2 34 1
34 41 1
41 2 1
2 79 1
79 41 1
41 74 1
12 74 1
43 78 1
78 2 1
12 80 1
80 12 1
12 43 1
12 20 1
21 2 1
