42 2 72
2 42 67
2 5 49
5 2 49
2 12 22
12 2 19
20 21 16
21 20 11
2 72 11
23 24 10
2 8 9
72 2 9
20 42 9
8 2 8
42 20 8
2 6 7
6 2 7
72 20 6
72 42 6
8 5 5
2 20 5
24 23 5
42 72 5
4 2 4
10 2 4
20 2 4
21 72 4
2 10 3
5 10 3
2 4 3
5 8 3
2 23 3
24 2 3
28 2 3
2 55 3
55 23 3
20 72 3
2 3 2
3 4 2
10 5 2
12 13 2
29 30 2
30 31 2
2 28 2
44 2 2
2 50 2
23 53 2
53 2 2
2 27 2
23 2 2
42 66 2
66 2 2
42 5 2
72 77 2
77 42 2
1 2 1
5 6 1
6 7 1
7 2 1
2 9 1
9 8 1
10 11 1
11 5 1
13 12 1
13 2 1
2 14 1
14 12 1
2 15 1
15 2 1
2 16 1
16 17 1
17 2 1
2 18 1
18 2 1
2 19 1
19 2 1
21 22 1
22 2 1
24 25 1
25 2 1
2 26 1
26 23 1
24 27 1
27 28 1
28 29 1
31 28 1
2 32 1
32 2 1
2 33 1
33 34 1
34 35 1
35 36 1
36 2 1
2 37 1
37 2 1
2 38 1
38 2 1
2 39 1
39 40 1
40 41 1
41 42 1
2 43 1
43 44 1
2 44 1
4 5 1
5 45 1
45 10 1
2 46 1
46 2 1
5 47 1
47 2 1
2 48 1
48 42 1
42 21 1
21 49 1
49 42 1
50 2 1
2 51 1
51 23 1
24 52 1
52 23 1
27 2 1
5 54 1
54 23 1
24 56 1
56 2 1
2 57 1
57 2 1
23 25 1
25 55 1
55 24 1
2 58 1
58 24 1
2 59 1
59 60 1
60 59 1
59 2 1
27 23 1
23 61 1
61 62 1
62 23 1
23 12 1
12 63 1
63 12 1
50 12 1
2 64 1
64 30 1
31 29 1
30 42 1
21 24 1
24 42 1
42 65 1
65 2 1
2 67 1
67 68 1
68 35 1
35 2 1
2 69 1
69 42 1
12 6 1
6 5 1
5 70 1
70 16 1
16 8 1
8 71 1
71 20 1
20 73 1
73 74 1
74 2 1
5 42 1
42 10 1
10 75 1
75 42 1
2 76 1
76 20 1
72 21 1
2 21 1
72 34 1
34 2 1
2 34 1
34 41 1
41 2 1
2 78 1
78 41 1
41 72 1
12 72 1
42 77 1
77 2 1
12 79 1
79 2 1
12 42 1
12 20 1
21 2 1
