9 16 14
16 9 14
22 38 11
38 22 10
13 12 9
19 10 9
9 10 8
10 9 8
12 13 8
10 19 8
22 13 7
31 33 7
17 9 6
13 22 6
43 21 6
22 29 6
33 31 6
9 17 5
19 12 5
29 22 5
11 19 4
22 21 4
12 19 4
33 7 4
7 33 4
24 31 4
31 24 4
21 43 4
7 10 4
10 7 4
19 11 3
24 25 3
21 22 3
12 21 3
44 22 3
24 33 3
33 24 3
16 17 2
21 10 2
25 24 2
22 25 2
25 7 2
13 35 2
36 7 2
43 44 2
44 43 2
45 19 2
21 12 2
21 44 2
52 7 2
7 52 2
22 44 2
67 31 2
1 2 1
2 3 1
3 4 1
4 3 1
3 5 1
5 6 1
6 7 1
7 8 1
8 7 1
7 9 1
9 11 1
11 9 1
9 12 1
12 14 1
14 15 1
15 9 1
17 18 1
18 16 1
17 16 1
16 19 1
10 20 1
20 19 1
19 21 1
10 21 1
10 13 1
13 23 1
23 13 1
13 24 1
24 26 1
26 24 1
24 27 1
27 24 1
25 28 1
28 22 1
21 29 1
29 30 1
30 31 1
31 19 1
12 32 1
32 19 1
19 33 1
33 29 1
7 34 1
34 33 1
33 25 1
7 13 1
35 13 1
35 36 1
7 36 1
7 37 1
37 7 1
7 22 1
38 32 1
32 22 1
22 39 1
39 22 1
38 40 1
40 16 1
9 41 1
41 9 1
16 32 1
32 24 1
24 42 1
42 24 1
24 43 1
43 10 1
19 45 1
19 46 1
46 19 1
10 47 1
47 22 1
29 48 1
48 29 1
29 12 1
44 12 1
12 49 1
49 12 1
12 22 1
22 50 1
50 22 1
22 51 1
51 52 1
52 53 1
53 54 1
54 7 1
7 54 1
54 9 1
16 55 1
55 9 1
9 56 1
56 16 1
9 7 1
7 57 1
57 12 1
12 57 1
57 13 1
12 58 1
58 25 1
25 22 1
25 16 1
9 59 1
59 21 1
21 11 1
11 21 1
21 17 1
9 60 1
60 61 1
61 62 1
62 22 1
13 63 1
63 22 1
22 43 1
21 26 1
26 64 1
64 22 1
22 65 1
65 22 1
29 43 1
22 24 1
24 66 1
66 24 1
24 67 1
31 37 1
37 31 1
31 36 1
36 31 1
31 67 1
33 13 1
13 68 1
68 7 1
7 38 1
22 56 1
56 39 1
39 69 1
69 45 1
19 70 1
70 11 1
