18 22 24
22 18 24
22 23 10
23 22 10
17 18 10
36 18 9
18 17 9
18 36 8
25 18 7
24 36 5
17 45 5
15 54 5
54 47 5
62 25 5
25 62 5
47 54 5
18 25 5
21 22 4
36 24 4
45 17 4
54 15 4
47 74 4
74 47 4
20 17 3
17 42 3
18 57 3
57 18 3
15 18 3
17 20 2
20 24 2
32 18 2
18 33 2
33 18 2
18 20 2
42 17 2
15 17 2
17 49 2
49 17 2
22 21 2
58 59 2
59 58 2
24 54 2
67 47 2
68 18 2
18 68 2
74 75 2
75 74 2
82 24 2
1 2 1
2 3 1
3 4 1
4 5 1
5 3 1
3 6 1
6 7 1
7 8 1
8 9 1
9 10 1
10 11 1
11 12 1
12 13 1
13 14 1
14 15 1
15 16 1
16 17 1
17 5 1
5 18 1
18 19 1
19 17 1
17 21 1
23 20 1
24 20 1
24 25 1
18 26 1
26 27 1
27 28 1
28 29 1
29 23 1
23 29 1
29 27 1
27 18 1
18 30 1
30 18 1
18 31 1
31 18 1
18 32 1
33 22 1
22 32 1
18 34 1
34 35 1
35 22 1
22 33 1
22 24 1
36 37 1
37 36 1
24 38 1
38 24 1
24 39 1
39 18 1
20 40 1
40 18 1
18 41 1
41 18 1
18 42 1
42 39 1
39 43 1
43 42 1
42 44 1
44 42 1
42 43 1
43 17 1
42 45 1
45 46 1
46 47 1
47 48 1
48 15 1
45 3 1
3 50 1
50 51 1
51 21 1
22 52 1
52 23 1
23 53 1
53 15 1
47 15 1
15 55 1
55 15 1
18 56 1
56 17 1
18 58 1
58 25 1
18 60 1
60 18 1
18 61 1
61 62 1
62 63 1
63 15 1
18 24 1
54 24 1
24 64 1
64 24 1
54 65 1
65 47 1
47 66 1
66 47 1
47 64 1
64 47 1
54 67 1
47 67 1
47 36 1
36 23 1
22 68 1
68 69 1
69 22 1
22 70 1
70 15 1
18 71 1
71 72 1
72 71 1
71 17 1
17 73 1
73 25 1
25 15 1
15 47 1
47 76 1
76 36 1
36 5 1
5 36 1
36 77 1
77 18 1
17 78 1
78 18 1
18 79 1
79 18 1
18 80 1
80 18 1
18 54 1
54 18 1
18 23 1
23 81 1
81 82 1
24 82 1
17 22 1
18 15 1
18 83 1
83 18 1
