10 40 96
40 10 96
70 40 44
40 70 41
40 21 37
21 40 37
21 10 26
10 21 25
10 70 18
12 10 17
70 10 13
10 12 9
46 10 8
10 46 7
70 21 6
21 70 4
40 41 4
10 16 3
16 10 3
24 10 3
37 12 3
38 37 3
41 10 3
49 21 3
77 10 3
8 9 2
9 8 2
10 11 2
11 10 2
20 21 2
10 24 2
10 37 2
10 38 2
39 37 2
37 39 2
10 41 2
40 49 2
49 40 2
21 49 2
21 66 2
71 70 2
40 71 2
1 2 1
2 3 1
3 4 1
4 5 1
5 6 1
6 7 1
7 8 1
8 10 1
12 13 1
13 12 1
10 14 1
14 15 1
15 10 1
10 17 1
17 18 1
18 19 1
19 20 1
10 22 1
22 10 1
10 23 1
23 24 1
24 6 1
6 25 1
25 24 1
10 26 1
26 27 1
27 28 1
28 12 1
12 29 1
29 30 1
30 31 1
31 10 1
10 32 1
32 33 1
33 34 1
34 35 1
35 36 1
36 12 1
10 39 1
37 38 1
39 12 1
37 10 1
10 42 1
42 43 1
43 40 1
40 44 1
44 40 1
10 45 1
45 46 1
10 47 1
47 10 1
21 48 1
48 40 1
21 50 1
50 40 1
49 50 1
50 51 1
51 40 1
40 52 1
52 49 1
21 53 1
53 21 1
10 54 1
54 40 1
40 55 1
55 56 1
56 40 1
40 57 1
57 40 1
40 19 1
19 58 1
58 10 1
10 59 1
59 21 1
21 12 1
10 60 1
60 61 1
61 62 1
62 63 1
63 12 1
12 64 1
64 10 1
10 65 1
65 21 1
66 21 1
66 67 1
67 49 1
21 68 1
68 40 1
40 69 1
69 40 1
70 71 1
40 72 1
72 73 1
73 20 1
21 20 1
20 41 1
41 74 1
74 40 1
10 75 1
75 76 1
76 40 1
70 77 1
40 78 1
78 70 1
70 79 1
79 80 1
80 10 1
70 31 1
31 70 1
40 81 1
81 82 1
82 83 1
83 10 1
10 84 1
84 10 1
41 85 1
85 83 1
83 41 1
10 83 1
83 21 1
41 86 1
86 10 1
10 36 1
36 40 1
41 40 1
21 41 1
41 87 1
87 88 1
88 40 1
40 30 1
30 40 1
10 78 1
78 40 1
10 89 1
89 10 1
40 90 1
90 91 1
91 40 1
10 92 1
92 77 1
77 93 1
93 10 1
10 8 1
8 12 1
40 12 1
41 77 1
40 94 1
94 77 1
40 95 1
95 96 1
96 10 1
40 97 1
97 10 1
71 10 1
10 98 1
98 99 1
99 40 1
40 9 1
9 100 1
100 101 1
101 102 1
