11 12 23
12 11 21
7 10 6
10 7 6
10 28 5
25 22 5
22 25 5
15 36 5
36 15 5
7 6 4
6 15 3
16 10 3
26 22 3
33 10 3
10 25 3
10 51 3
6 7 2
6 8 2
9 10 2
13 14 2
10 16 2
15 10 2
22 24 2
22 26 2
10 27 2
27 10 2
28 10 2
11 10 2
10 36 2
39 10 2
10 39 2
6 33 2
46 10 2
36 25 2
25 36 2
25 10 2
49 10 2
10 6 2
1 2 1
2 3 1
3 2 1
2 4 1
4 5 1
5 6 1
8 6 1
8 7 1
7 8 1
8 9 1
10 9 1
9 11 1
11 6 1
6 13 1
14 13 1
14 7 1
15 7 1
6 9 1
16 9 1
9 17 1
17 6 1
15 17 1
17 15 1
10 15 1
10 18 1
18 19 1
19 16 1
10 20 1
20 21 1
21 10 1
10 22 1
22 23 1
23 22 1
24 22 1
24 25 1
25 26 1
22 10 1
28 29 1
29 12 1
12 30 1
30 11 1
12 25 1
22 31 1
31 22 1
25 32 1
32 33 1
33 34 1
34 11 1
12 35 1
35 11 1
36 37 1
37 36 1
36 38 1
38 9 1
9 22 1
22 15 1
15 39 1
39 6 1
10 40 1
40 10 1
28 12 1
12 41 1
41 12 1
12 7 1
10 42 1
42 33 1
33 43 1
43 44 1
44 45 1
45 16 1
10 46 1
36 10 1
25 47 1
47 25 1
25 27 1
27 36 1
36 11 1
11 48 1
48 49 1
10 50 1
50 10 1
6 10 1
51 6 1
28 52 1
52 10 1
15 53 1
53 10 1
10 33 1
33 46 1
7 54 1
54 7 1
7 51 1
51 55 1
55 49 1
51 10 1
51 33 1
10 11 1
10 56 1
56 57 1
57 10 1
10 58 1
58 59 1
