25 15 24
15 25 23
24 25 21
25 24 17
25 11 6
15 34 6
34 15 6
25 73 6
73 25 6
39 25 6
25 39 6
21 48 5
15 11 5
11 15 5
31 33 4
33 32 4
48 21 4
11 25 4
14 15 3
11 24 3
32 33 3
33 31 3
74 33 3
74 4 3
11 14 2
15 17 2
14 24 2
15 35 2
39 24 2
46 21 2
33 15 2
51 25 2
25 52 2
52 25 2
25 53 2
24 11 2
56 58 2
15 60 2
22 33 2
33 22 2
4 74 2
33 74 2
1 2 1
2 3 1
3 4 1
4 5 1
5 6 1
6 7 1
7 8 1
8 9 1
9 10 1
10 11 1
11 12 1
12 11 1
11 13 1
13 11 1
15 16 1
16 15 1
17 18 1
18 15 1
15 19 1
19 20 1
20 21 1
21 20 1
20 22 1
22 11 1
11 23 1
23 11 1
25 26 1
26 25 1
25 27 1
27 28 1
28 15 1
15 29 1
29 24 1
11 30 1
30 25 1
25 31 1
31 32 1
32 31 1
32 15 1
35 15 1
25 36 1
36 37 1
37 25 1
25 38 1
38 39 1
39 40 1
40 39 1
39 41 1
41 39 1
25 42 1
42 24 1
15 43 1
43 44 1
44 33 1
33 21 1
21 45 1
45 31 1
31 46 1
21 46 1
21 33 1
15 14 1
35 22 1
22 21 1
21 47 1
47 21 1
21 25 1
15 49 1
49 50 1
50 25 1
25 51 1
53 15 1
15 54 1
54 25 1
15 55 1
55 15 1
11 56 1
56 57 1
57 56 1
58 59 1
59 24 1
24 56 1
58 15 1
60 15 1
60 31 1
31 61 1
61 33 1
31 22 1
22 31 1
15 62 1
62 14 1
14 25 1
24 63 1
63 64 1
64 65 1
65 14 1
14 17 1
17 14 1
25 66 1
66 15 1
15 67 1
67 15 1
15 39 1
39 68 1
68 39 1
39 69 1
69 25 1
25 56 1
56 70 1
70 25 1
25 71 1
71 25 1
25 14 1
17 72 1
72 14 1
14 48 1
48 25 1
25 74 1
33 4 1
4 75 1
75 74 1
74 76 1
76 33 1
33 77 1
77 74 1
4 33 1
33 78 1
78 25 1
24 79 1
79 31 1
31 80 1
80 33 1
33 81 1
81 82 1
82 83 1
83 15 1
15 84 1
84 15 1
15 51 1
15 85 1
85 15 1
53 24 1
24 86 1
86 11 1
11 87 1
87 27 1
27 88 1
88 11 1
25 57 1
57 25 1
24 39 1
25 21 1
48 10 1
