24 22 13
22 24 12
10 12 10
12 10 8
13 12 8
12 13 7
19 11 7
11 19 7
22 31 7
11 42 6
42 11 6
42 12 6
31 22 5
12 26 4
12 29 4
29 12 4
33 21 4
21 33 4
12 15 3
18 12 3
20 22 3
26 12 3
40 21 3
21 40 3
52 10 3
31 10 3
12 42 3
58 13 3
13 58 3
13 11 3
12 6 2
12 18 2
22 20 2
22 23 2
23 22 2
12 22 2
41 42 2
42 41 2
12 46 2
46 12 2
10 52 2
10 54 2
10 31 2
22 21 2
21 22 2
1 2 1
2 3 1
3 4 1
4 5 1
5 6 1
6 4 1
4 7 1
7 8 1
8 9 1
9 10 1
10 11 1
11 8 1
8 12 1
12 14 1
14 12 1
15 12 1
15 16 1
16 17 1
17 12 1
12 16 1
16 18 1
6 12 1
6 18 1
18 19 1
19 20 1
20 21 1
21 20 1
22 25 1
25 12 1
26 27 1
27 26 1
26 28 1
28 12 1
13 30 1
30 13 1
31 32 1
32 22 1
31 33 1
33 34 1
34 35 1
35 36 1
36 37 1
37 19 1
19 28 1
28 38 1
38 39 1
39 13 1
13 40 1
40 13 1
13 41 1
41 15 1
15 41 1
41 30 1
30 43 1
43 10 1
10 40 1
40 44 1
44 40 1
40 45 1
45 40 1
40 12 1
12 21 1
21 47 1
47 48 1
48 22 1
22 49 1
49 22 1
22 11 1
11 15 1
15 11 1
11 50 1
50 12 1
12 49 1
49 29 1
12 51 1
51 12 1
12 52 1
52 53 1
53 52 1
54 55 1
55 10 1
54 10 1
12 31 1
10 56 1
56 42 1
12 57 1
57 58 1
58 42 1
12 11 1
11 59 1
59 20 1
20 13 1
11 24 1
22 13 1
11 12 1
12 60 1
60 32 1
32 13 1
11 61 1
61 13 1
13 62 1
62 12 1
12 44 1
44 21 1
21 12 1
22 44 1
44 22 1
22 42 1
15 33 1
33 22 1
22 63 1
63 24 1
24 25 1
25 13 1
29 10 1
