14 16 26
11 21 26
16 14 25
21 11 24
10 12 21
12 10 16
18 19 13
19 18 11
12 14 10
10 11 8
11 10 7
14 12 7
12 11 6
14 18 5
12 16 5
16 26 5
11 12 4
14 10 4
16 18 4
11 14 4
18 12 4
20 14 4
14 20 4
4 5 3
5 4 3
4 7 3
21 14 3
16 21 3
26 16 3
26 14 3
25 16 3
20 21 3
21 20 3
7 4 2
15 11 2
16 11 2
11 16 2
10 19 2
19 14 2
18 10 2
14 11 2
21 10 2
14 25 2
32 25 2
25 32 2
25 28 2
1 2 1
2 3 1
3 4 1
4 6 1
6 7 1
7 8 1
8 7 1
7 9 1
9 4 1
7 10 1
11 13 1
13 11 1
14 15 1
11 15 1
10 16 1
10 17 1
17 14 1
18 14 1
19 16 1
19 12 1
18 20 1
20 16 1
16 10 1
11 22 1
22 21 1
14 23 1
23 11 1
14 24 1
24 16 1
25 14 1
16 27 1
27 25 1
16 25 1
14 26 1
14 28 1
28 29 1
29 21 1
21 16 1
14 21 1
10 30 1
30 31 1
31 26 1
26 32 1
28 33 1
33 26 1
26 34 1
34 25 1
25 26 1
26 25 1
28 25 1
32 35 1
35 36 1
36 25 1
25 10 1
10 14 1
21 12 1
12 18 1
16 12 1
12 37 1
37 11 1
21 38 1
38 39 1
39 14 1
16 40 1
40 10 1
10 41 1
41 10 1
11 20 1
20 19 1
19 42 1
42 19 1
19 43 1
