6 5 72
5 6 71
5 7 64
7 5 62
5 10 19
7 10 17
8 7 16
10 7 15
10 5 15
7 8 13
10 6 10
40 5 10
5 40 9
2 3 8
3 5 8
10 8 7
5 8 7
8 5 7
5 28 7
3 2 6
8 10 5
6 10 5
28 5 5
5 3 4
6 3 4
17 15 4
15 17 4
6 7 4
7 24 4
24 7 4
29 5 4
33 5 4
34 33 4
5 13 3
13 5 3
27 5 3
7 33 3
33 8 3
34 7 3
3 6 2
5 14 2
14 5 2
7 6 2
23 10 2
10 24 2
5 29 2
30 5 2
5 22 2
7 34 2
33 34 2
33 10 2
10 33 2
8 33 2
5 34 2
1 2 1
3 4 1
4 3 1
5 2 1
8 9 1
9 7 1
7 11 1
11 12 1
12 5 1
5 15 1
15 16 1
16 17 1
17 6 1
6 18 1
18 19 1
19 6 1
7 20 1
20 21 1
21 8 1
7 22 1
22 7 1
5 23 1
8 6 1
6 24 1
24 23 1
24 10 1
24 25 1
25 8 1
7 26 1
26 27 1
6 27 1
5 27 1
28 29 1
7 28 1
28 6 1
6 28 1
28 30 1
6 30 1
28 27 1
27 29 1
29 6 1
5 31 1
31 10 1
5 32 1
32 30 1
30 29 1
22 33 1
33 27 1
27 34 1
34 5 1
5 33 1
33 7 1
10 34 1
34 35 1
35 36 1
36 33 1
33 37 1
37 33 1
33 38 1
38 34 1
7 39 1
39 5 1
22 5 1
5 41 1
41 40 1
5 42 1
