21 6 65
6 21 63
25 21 28
21 25 27
51 21 25
21 51 23
21 13 17
13 21 16
18 21 11
21 18 9
46 51 8
5 6 7
6 7 7
7 6 7
121 21 7
6 5 6
21 35 6
40 18 6
18 40 6
45 46 6
21 121 6
46 45 5
25 51 5
51 46 5
35 21 4
46 14 4
51 14 4
51 25 4
113 21 4
14 7 3
17 18 3
18 17 3
14 46 3
14 51 3
72 31 3
7 51 3
21 106 3
21 113 3
21 131 3
133 21 3
145 72 3
72 145 3
21 157 3
31 72 3
6 51 3
183 40 3
40 183 3
183 199 3
199 183 3
7 13 2
20 21 2
6 14 2
57 6 2
12 21 2
6 72 2
72 6 2
6 82 2
82 6 2
51 7 2
6 45 2
45 6 2
106 21 2
125 124 2
131 21 2
21 133 2
138 21 2
28 31 2
51 6 2
51 173 2
173 51 2
188 21 2
1 2 1
2 3 1
3 4 1
4 5 1
7 8 1
8 7 1
7 9 1
9 10 1
10 7 1
7 11 1
11 7 1
6 12 1
12 13 1
13 7 1
13 14 1
13 15 1
15 16 1
16 17 1
17 19 1
19 20 1
21 22 1
22 23 1
23 20 1
20 23 1
23 21 1
21 20 1
21 23 1
23 24 1
24 23 1
23 25 1
25 26 1
26 25 1
25 27 1
27 23 1
23 6 1
14 28 1
28 29 1
29 14 1
7 30 1
30 7 1
7 31 1
31 14 1
14 32 1
32 14 1
7 14 1
14 6 1
7 33 1
33 34 1
34 21 1
21 36 1
36 37 1
37 38 1
38 39 1
39 40 1
40 41 1
41 42 1
42 43 1
43 44 1
44 45 1
14 47 1
47 14 1
14 48 1
48 49 1
49 50 1
50 51 1
51 52 1
52 53 1
53 54 1
54 55 1
55 56 1
56 18 1
18 57 1
14 58 1
58 46 1
46 59 1
59 14 1
14 60 1
60 46 1
14 61 1
61 51 1
14 62 1
62 14 1
51 63 1
63 51 1
51 64 1
64 46 1
51 65 1
65 66 1
66 12 1
21 67 1
67 12 1
12 68 1
68 13 1
21 69 1
69 21 1
13 70 1
70 71 1
71 7 1
7 73 1
73 21 1
13 74 1
74 75 1
75 76 1
76 77 1
77 78 1
78 21 1
6 79 1
79 6 1
21 80 1
80 35 1
35 81 1
81 6 1
6 83 1
83 84 1
84 85 1
85 21 1
21 86 1
86 21 1
25 87 1
87 25 1
25 88 1
88 89 1
89 25 1
25 90 1
90 25 1
51 91 1
91 25 1
51 92 1
92 25 1
25 93 1
93 94 1
94 7 1
6 31 1
31 7 1
7 72 1
31 6 1
6 95 1
95 7 1
51 96 1
96 7 1
7 97 1
97 7 1
7 98 1
98 96 1
96 51 1
51 99 1
99 21 1
21 12 1
21 100 1
100 57 1
21 101 1
101 21 1
21 102 1
102 6 1
21 103 1
103 21 1
6 104 1
104 6 1
6 105 1
105 21 1
106 107 1
107 108 1
108 6 1
6 109 1
109 6 1
6 110 1
110 21 1
21 111 1
111 21 1
21 112 1
112 113 1
18 107 1
107 18 1
21 114 1
114 21 1
21 115 1
115 21 1
21 116 1
116 6 1
6 117 1
117 118 1
118 21 1
35 119 1
119 120 1
120 121 1
121 122 1
122 123 1
123 35 1
35 121 1
121 124 1
124 121 1
121 125 1
124 125 1
124 126 1
126 122 1
122 121 1
121 127 1
127 128 1
128 129 1
129 130 1
130 21 1
131 132 1
132 131 1
131 128 1
128 133 1
21 134 1
134 21 1
21 135 1
135 51 1
21 107 1
107 51 1
51 136 1
136 51 1
25 79 1
79 25 1
21 137 1
137 35 1
21 138 1
21 139 1
139 21 1
6 140 1
140 6 1
6 141 1
141 21 1
6 142 1
142 92 1
92 6 1
21 143 1
143 21 1
6 78 1
78 6 1
6 144 1
144 145 1
145 146 1
146 147 1
147 44 1
44 148 1
148 149 1
149 150 1
150 151 1
151 40 1
40 152 1
152 46 1
46 21 1
21 153 1
153 154 1
154 28 1
31 28 1
31 155 1
155 156 1
156 21 1
157 158 1
158 46 1
46 159 1
159 46 1
46 160 1
160 46 1
46 161 1
161 51 1
51 162 1
162 157 1
157 60 1
60 72 1
72 157 1
157 163 1
163 31 1
72 51 1
51 31 1
31 51 1
51 138 1
21 164 1
164 21 1
13 165 1
165 166 1
166 18 1
21 167 1
167 168 1
168 169 1
169 44 1
44 170 1
170 171 1
171 172 1
172 6 1
6 173 1
173 6 1
21 174 1
174 21 1
6 175 1
175 6 1
6 176 1
176 50 1
50 177 1
177 49 1
49 25 1
21 178 1
178 25 1
25 179 1
179 21 1
51 155 1
155 13 1
13 180 1
180 13 1
35 18 1
21 181 1
181 182 1
182 183 1
183 68 1
68 184 1
184 41 1
41 185 1
185 157 1
157 186 1
186 51 1
51 187 1
187 21 1
21 188 1
157 189 1
189 51 1
51 190 1
190 21 1
157 46 1
51 191 1
191 188 1
21 125 1
125 21 1
21 192 1
192 193 1
193 51 1
51 194 1
194 51 1
51 195 1
195 51 1
21 196 1
196 21 1
35 197 1
197 121 1
121 198 1
198 121 1
21 41 1
41 51 1
51 121 1
121 183 1
183 200 1
200 201 1
201 202 1
202 6 1
