4 6 40
6 4 39
18 4 32
31 4 30
4 31 29
4 18 27
4 27 24
27 4 22
34 4 18
4 34 17
27 31 12
4 20 12
20 4 11
20 27 10
8 4 9
27 20 9
31 27 9
20 28 9
28 27 8
4 8 7
6 20 7
27 28 7
4 29 7
29 27 7
27 29 6
28 20 6
31 6 6
29 31 6
3 4 5
29 4 5
20 29 4
31 29 4
27 34 4
14 15 3
16 17 3
18 16 3
18 19 3
19 18 3
20 6 3
6 34 3
34 6 3
4 33 3
4 28 3
27 6 3
29 20 3
28 31 3
31 20 3
34 31 3
4 41 3
4 3 2
4 10 2
10 4 2
15 14 2
17 18 2
16 18 2
28 29 2
28 24 2
33 31 2
20 33 2
20 30 2
30 27 2
28 4 2
32 4 2
6 31 2
33 20 2
26 20 2
31 18 2
18 27 2
6 18 2
18 31 2
34 27 2
31 34 2
29 18 2
41 4 2
1 2 1
2 3 1
4 5 1
5 4 1
6 3 1
4 7 1
7 3 1
8 9 1
9 8 1
10 8 1
4 11 1
11 10 1
6 8 1
4 12 1
12 13 1
13 14 1
15 16 1
18 17 1
17 16 1
17 19 1
19 17 1
17 6 1
4 21 1
21 22 1
22 23 1
23 24 1
24 25 1
25 26 1
26 25 1
25 27 1
29 30 1
30 24 1
24 31 1
31 24 1
24 26 1
26 28 1
29 32 1
32 27 1
24 33 1
31 33 1
33 34 1
33 28 1
24 4 1
29 25 1
25 29 1
20 34 1
6 32 1
32 24 1
24 32 1
20 32 1
32 20 1
20 31 1
31 28 1
33 4 1
6 35 1
35 30 1
30 33 1
30 4 1
20 26 1
28 18 1
4 26 1
4 30 1
33 27 1
27 26 1
26 36 1
36 28 1
4 37 1
37 28 1
31 38 1
38 4 1
27 24 1
24 29 1
31 32 1
32 31 1
4 32 1
27 18 1
18 29 1
34 39 1
39 4 1
27 40 1
40 4 1
31 41 1
41 6 1
41 18 1
34 18 1
