5 6 49
5 10 47
10 5 47
6 5 45
8 5 27
5 8 24
9 8 21
5 9 16
9 5 16
8 9 16
8 31 14
31 8 13
9 43 10
44 9 10
29 8 9
8 39 9
39 8 9
8 41 9
41 8 9
43 8 9
9 44 9
43 9 9
8 29 8
5 7 7
8 28 7
28 8 7
8 43 7
7 5 6
8 10 6
9 49 6
10 8 5
49 9 5
48 9 5
31 29 4
37 8 4
29 43 4
9 48 4
8 48 4
55 9 4
9 55 4
55 44 4
29 31 3
8 34 3
8 37 3
43 29 3
51 9 3
9 51 3
47 43 3
6 8 2
6 10 2
8 20 2
20 8 2
31 33 2
33 31 2
34 8 2
34 32 2
34 29 2
32 33 2
8 42 2
42 8 2
43 44 2
52 53 2
49 44 2
9 54 2
54 9 2
44 55 2
29 9 2
8 47 2
29 48 2
48 8 2
8 63 2
1 2 1
2 3 1
3 4 1
4 5 1
7 8 1
10 11 1
11 12 1
12 5 1
5 13 1
13 5 1
6 14 1
14 5 1
5 15 1
15 16 1
16 17 1
17 5 1
5 18 1
18 5 1
8 6 1
10 9 1
5 19 1
19 5 1
10 12 1
12 8 1
5 21 1
21 5 1
5 22 1
22 5 1
5 23 1
23 5 1
5 24 1
24 5 1
5 25 1
25 8 1
10 26 1
26 10 1
5 27 1
27 5 1
8 30 1
30 8 1
31 32 1
32 31 1
32 34 1
29 34 1
29 35 1
35 34 1
34 35 1
35 33 1
33 34 1
33 32 1
33 29 1
8 35 1
35 31 1
31 36 1
36 37 1
8 38 1
38 8 1
8 40 1
40 29 1
44 45 1
45 38 1
38 46 1
46 45 1
45 47 1
47 8 1
44 48 1
48 49 1
49 50 1
50 29 1
43 45 1
45 48 1
48 44 1
44 43 1
29 51 1
9 52 1
53 52 1
53 43 1
9 29 1
29 45 1
45 49 1
49 53 1
53 49 1
48 43 1
48 55 1
44 28 1
28 55 1
44 56 1
56 9 1
51 44 1
44 47 1
43 57 1
57 8 1
8 58 1
58 9 1
8 49 1
44 59 1
59 9 1
48 29 1
49 60 1
60 9 1
47 29 1
43 61 1
61 43 1
43 51 1
51 8 1
8 62 1
62 47 1
43 62 1
62 29 1
63 8 1
63 64 1
64 63 1
