40 41 15
41 40 14
10 11 13
11 10 12
31 27 12
27 31 12
32 33 7
33 32 6
37 32 6
32 37 6
7 8 5
35 32 5
32 35 5
8 7 4
34 33 4
33 34 3
48 10 3
10 48 3
12 13 2
14 15 2
7 12 2
12 7 2
18 19 2
21 22 2
22 23 2
23 24 2
24 23 2
23 22 2
29 30 2
33 36 2
36 32 2
33 35 2
35 33 2
10 50 2
51 10 2
10 51 2
1 2 1
2 3 1
3 4 1
4 5 1
5 6 1
6 7 1
7 6 1
6 8 1
8 9 1
9 7 1
7 10 1
11 12 1
13 12 1
13 7 1
8 14 1
15 14 1
15 7 1
7 16 1
16 17 1
17 16 1
16 18 1
19 20 1
20 18 1
19 21 1
22 21 1
22 24 1
24 22 1
22 25 1
25 22 1
22 26 1
26 27 1
27 26 1
26 28 1
28 29 1
30 29 1
30 31 1
31 32 1
34 35 1
35 34 1
32 36 1
32 34 1
34 36 1
36 34 1
36 33 1
33 37 1
37 38 1
38 39 1
39 40 1
41 39 1
39 42 1
42 43 1
43 44 1
44 45 1
45 39 1
39 43 1
43 46 1
46 47 1
47 48 1
10 49 1
49 10 1
48 50 1
50 10 1
50 51 1
51 52 1
52 53 1
53 54 1
54 55 1
55 10 1
