4 7 22
7 4 21
7 6 20
21 22 20
6 7 19
22 21 19
22 24 10
24 22 10
5 17 8
19 5 8
5 19 8
25 27 8
17 5 7
27 25 7
19 23 6
23 19 6
2 4 5
4 2 5
5 6 5
14 15 5
15 14 5
6 5 4
2 6 4
6 12 4
7 17 4
5 7 4
15 4 4
2 3 3
3 2 3
7 8 3
8 7 3
12 6 3
14 6 3
6 2 3
6 18 3
18 7 3
7 5 3
17 7 3
4 15 3
6 11 2
2 14 2
6 14 2
17 6 2
18 6 2
6 4 2
24 21 2
25 24 2
29 25 2
1 2 1
2 5 1
7 9 1
9 10 1
10 6 1
11 2 1
12 2 1
2 13 1
13 14 1
6 16 1
16 2 1
14 2 1
14 7 1
6 19 1
19 6 1
18 4 1
4 18 1
6 20 1
20 5 1
17 4 1
4 17 1
17 18 1
7 18 1
7 15 1
4 11 1
11 17 1
11 6 1
6 17 1
4 6 1
7 21 1
22 5 1
5 10 1
10 5 1
17 19 1
19 22 1
21 25 1
21 26 1
26 21 1
21 4 1
4 3 1
3 4 1
4 25 1
27 28 1
28 29 1
25 29 1
22 30 1
30 31 1
