2 3 22
3 2 22
6 3 12
3 6 10
13 2 7
3 7 6
7 3 5
2 13 5
2 12 5
19 2 5
2 4 3
4 5 3
5 4 3
8 4 3
4 8 3
4 2 3
8 2 3
13 4 3
12 2 3
12 19 3
2 19 3
4 3 2
3 4 2
2 6 2
3 8 2
2 8 2
2 5 2
2 16 2
4 13 2
8 3 2
5 19 2
1 2 1
5 6 1
6 2 1
7 2 1
4 9 1
9 8 1
8 9 1
9 7 1
7 5 1
2 10 1
10 2 1
4 11 1
11 8 1
8 10 1
10 12 1
12 11 1
11 10 1
10 11 1
11 2 1
5 2 1
2 11 1
11 14 1
14 9 1
9 15 1
15 5 1
5 8 1
16 13 1
2 17 1
17 4 1
7 8 1
8 7 1
3 13 1
12 18 1
18 13 1
13 12 1
19 13 1
2 15 1
15 2 1
16 2 1
19 5 1
19 12 1
19 15 1
15 19 1
2 20 1
