12 11 18
11 12 18
8 9 12
9 6 12
9 8 11
6 9 10
40 28 8
28 40 7
14 9 6
9 14 5
9 46 5
46 9 5
47 9 5
6 7 4
11 9 4
14 20 4
20 14 4
9 22 4
28 6 4
34 39 4
40 41 4
41 40 4
28 9 4
9 28 4
9 47 4
22 9 3
14 28 3
39 34 3
9 48 3
48 9 3
32 8 3
8 32 3
6 28 3
7 6 2
23 24 2
28 14 2
6 14 2
33 34 2
35 34 2
37 35 2
39 37 2
46 47 2
9 11 2
1 2 1
2 3 1
3 4 1
4 5 1
5 6 1
7 8 1
8 10 1
10 8 1
8 6 1
7 11 1
9 12 1
12 13 1
13 14 1
14 15 1
15 16 1
16 14 1
14 17 1
17 14 1
14 18 1
18 14 1
14 19 1
19 14 1
14 21 1
21 9 1
9 23 1
24 23 1
24 25 1
25 26 1
26 27 1
27 14 1
14 6 1
14 29 1
29 14 1
6 8 1
6 30 1
30 31 1
31 32 1
32 33 1
34 35 1
34 36 1
36 11 1
11 33 1
34 37 1
35 38 1
38 39 1
37 39 1
39 40 1
41 42 1
42 41 1
28 42 1
42 43 1
43 40 1
40 44 1
44 45 1
45 8 1
8 28 1
47 46 1
9 49 1
49 9 1
9 50 1
50 51 1
51 9 1
9 52 1
52 11 1
12 34 1
34 53 1
53 54 1
54 14 1
14 55 1
55 56 1
56 9 1
9 57 1
57 32 1
32 22 1
22 58 1
58 46 1
22 12 1
11 32 1
32 59 1
59 31 1
31 8 1
8 4 1
4 60 1
60 31 1
31 34 1
34 4 1
4 11 1
28 61 1
61 9 1
9 62 1
62 43 1
43 29 1
29 63 1
63 64 1
