22 10 8
2 9 7
10 22 7
3 2 6
12 13 5
13 14 5
14 15 5
15 14 5
10 19 5
20 21 5
9 10 4
10 9 4
13 12 4
14 13 4
10 18 4
18 10 4
21 20 4
9 2 4
2 3 3
9 13 3
16 17 3
17 16 3
13 17 3
13 25 3
25 13 3
12 28 3
28 12 3
8 2 2
12 9 2
13 9 2
20 10 2
10 20 2
19 10 2
2 10 2
9 4 2
1 2 1
3 4 1
4 5 1
5 6 1
6 2 1
2 7 1
7 8 1
2 8 1
9 11 1
11 12 1
9 12 1
14 16 1
16 10 1
10 13 1
17 13 1
17 10 1
19 20 1
21 22 1
22 23 1
23 13 1
13 22 1
10 24 1
24 22 1
22 13 1
13 3 1
2 26 1
26 7 1
7 20 1
20 13 1
13 10 1
10 27 1
27 12 1
17 29 1
29 10 1
10 30 1
30 10 1
19 3 1
2 4 1
4 19 1
19 4 1
4 3 1
2 31 1
31 19 1
19 31 1
31 3 1
10 2 1
4 32 1
32 2 1
19 2 1
4 9 1
