4 6 37
6 4 34
30 4 34
4 30 30
19 4 26
4 19 24
4 27 21
27 4 16
27 30 13
21 4 12
32 4 12
4 32 12
21 27 10
4 21 10
30 27 10
21 26 10
9 4 8
26 21 8
4 9 7
26 27 7
27 26 7
27 28 7
28 27 7
3 4 6
6 21 6
27 32 5
27 21 5
4 28 5
27 6 5
30 6 5
32 30 5
14 15 4
15 14 4
6 32 4
28 4 4
26 30 4
32 27 4
4 3 3
17 18 3
19 20 3
20 19 3
29 30 3
29 27 3
4 29 3
27 29 3
21 28 3
28 21 3
29 21 3
30 28 3
19 27 3
28 30 3
19 30 3
12 4 2
18 19 2
19 17 2
21 6 2
30 29 2
26 28 2
29 4 2
32 6 2
6 30 2
24 4 2
30 24 2
21 25 2
25 21 2
30 21 2
27 25 2
30 31 2
30 19 2
6 19 2
28 32 2
30 32 2
1 2 1
2 3 1
4 5 1
5 4 1
6 3 1
4 7 1
7 3 1
6 8 1
8 6 1
9 10 1
10 9 1
4 11 1
11 12 1
4 12 1
6 9 1
9 13 1
13 9 1
4 10 1
10 14 1
14 16 1
16 17 1
17 19 1
19 18 1
18 17 1
18 20 1
20 18 1
18 6 1
4 22 1
22 23 1
23 24 1
24 25 1
25 24 1
24 26 1
28 29 1
29 25 1
25 26 1
28 31 1
31 27 1
26 23 1
23 29 1
32 29 1
29 26 1
28 24 1
24 28 1
4 26 1
6 31 1
31 23 1
23 31 1
31 33 1
33 4 1
21 31 1
31 21 1
26 4 1
21 30 1
30 26 1
29 34 1
34 6 1
6 24 1
24 29 1
21 24 1
27 35 1
35 27 1
4 25 1
25 4 1
6 29 1
25 36 1
36 26 1
25 29 1
24 21 1
4 37 1
37 21 1
27 23 1
23 28 1
31 30 1
31 4 1
27 19 1
19 28 1
4 38 1
38 19 1
32 28 1
27 39 1
39 32 1
28 40 1
40 30 1
4 41 1
41 4 1
28 19 1
30 42 1
42 6 1
6 42 1
42 19 1
4 42 1
42 4 1
32 19 1
