9 21 26
21 9 25
15 19 19
23 15 17
19 15 17
19 23 16
30 15 15
15 23 15
19 12 14
12 19 13
15 30 13
23 19 12
45 30 12
45 15 12
14 25 11
36 37 11
30 45 11
15 45 11
25 14 10
37 36 10
65 19 10
19 36 9
23 59 9
59 23 9
5 12 8
36 19 8
15 36 8
7 6 7
46 36 7
36 46 7
36 15 7
23 60 7
60 23 7
19 65 7
6 7 6
21 5 6
19 21 6
36 44 6
44 36 6
21 19 6
14 15 5
15 14 5
12 5 5
12 9 5
23 9 5
9 22 5
14 36 5
36 14 5
21 69 5
69 21 5
8 6 4
5 9 4
6 8 4
9 5 4
8 19 4
4 19 4
19 4 4
22 9 4
9 14 4
9 27 4
27 21 4
12 30 4
9 45 4
19 46 4
2 3 3
6 5 3
5 7 3
9 12 3
14 9 3
27 9 3
21 27 3
16 14 3
23 12 3
30 12 3
5 30 3
38 9 3
9 38 3
30 39 3
39 30 3
42 16 3
16 42 3
46 19 3
15 9 3
9 15 3
53 54 3
9 23 3
12 62 3
64 12 3
25 15 3
4 5 2
5 6 2
9 8 2
10 6 2
6 11 2
4 6 2
5 8 2
19 8 2
19 5 2
20 4 2
12 21 2
5 19 2
22 23 2
16 25 2
25 16 2
19 26 2
26 9 2
5 21 2
9 29 2
29 19 2
19 29 2
29 9 2
19 16 2
14 19 2
23 30 2
30 23 2
12 31 2
31 12 2
31 5 2
15 12 2
12 3 2
3 2 2
32 15 2
15 3 2
3 15 2
15 33 2
33 15 2
12 36 2
36 12 2
30 16 2
45 9 2
37 15 2
14 49 2
50 15 2
15 16 2
16 15 2
51 16 2
54 53 2
16 50 2
15 21 2
15 58 2
58 15 2
15 60 2
60 15 2
62 12 2
12 64 2
62 10 2
19 14 2
15 25 2
23 65 2
1 2 1
3 4 1
7 8 1
9 6 1
6 9 1
8 10 1
6 10 1
11 8 1
8 12 1
12 6 1
11 6 1
6 13 1
13 11 1
11 14 1
14 7 1
7 4 1
6 4 1
8 5 1
6 16 1
16 6 1
6 17 1
17 6 1
6 18 1
18 17 1
17 18 1
18 4 1
5 20 1
4 20 1
4 9 1
9 4 1
4 12 1
5 22 1
23 22 1
22 24 1
24 9 1
14 16 1
25 9 1
9 26 1
21 28 1
28 5 1
26 19 1
19 9 1
9 19 1
12 23 1
30 31 1
5 31 1
3 12 1
12 32 1
15 32 1
15 34 1
34 33 1
33 8 1
8 23 1
15 35 1
35 15 1
21 30 1
21 38 1
38 21 1
30 5 1
7 5 1
30 40 1
40 41 1
41 31 1
31 42 1
42 43 1
43 36 1
37 44 1
44 19 1
19 30 1
30 19 1
36 9 1
9 30 1
30 46 1
46 47 1
47 16 1
16 36 1
36 45 1
16 30 1
16 47 1
47 48 1
48 36 1
36 23 1
23 45 1
45 46 1
46 45 1
45 23 1
23 46 1
46 9 1
15 37 1
36 16 1
49 14 1
49 25 1
14 21 1
21 50 1
50 9 1
9 50 1
15 50 1
16 37 1
36 51 1
16 7 1
7 12 1
12 52 1
52 25 1
25 53 1
54 21 1
50 16 1
50 23 1
9 55 1
55 9 1
8 9 1
9 16 1
16 51 1
19 25 1
25 56 1
56 5 1
8 57 1
57 8 1
15 59 1
59 16 1
16 23 1
12 14 1
14 3 1
3 14 1
14 12 1
3 19 1
12 61 1
61 12 1
12 63 1
63 12 1
23 64 1
10 23 1
23 62 1
10 62 1
62 23 1
12 65 1
12 66 1
66 23 1
23 67 1
67 62 1
62 19 1
25 12 1
12 25 1
15 68 1
68 15 1
69 12 1
12 69 1
21 15 1
15 70 1
70 15 1
15 71 1
71 15 1
45 72 1
72 19 1
19 73 1
73 65 1
65 23 1
23 74 1
74 19 1
15 65 1
65 15 1
19 75 1
75 36 1
15 75 1
75 14 1
15 49 1
49 15 1
14 10 1
10 19 1
46 76 1
76 12 1
