13 41 134
41 13 131
14 13 57
13 14 57
13 20 44
20 13 42
50 13 22
13 24 21
13 50 21
24 13 20
30 13 18
13 30 17
42 13 15
13 42 14
35 14 12
43 41 11
52 13 11
14 35 10
41 43 10
13 52 10
15 14 9
36 35 9
41 14 9
14 54 9
13 59 9
54 14 8
14 15 7
19 13 7
13 19 7
14 41 7
59 13 7
35 36 6
14 36 6
43 13 6
13 43 6
14 16 6
16 14 6
14 59 6
13 15 5
35 13 5
36 14 5
38 13 5
14 30 5
15 13 4
30 14 4
13 36 4
13 35 4
13 38 4
59 14 4
12 13 3
13 22 3
13 39 3
39 13 3
41 30 3
14 52 3
41 50 3
59 60 3
13 12 2
22 13 2
13 25 2
25 13 2
14 26 2
28 13 2
13 28 2
30 15 2
36 13 2
45 41 2
41 45 2
20 14 2
43 45 2
45 43 2
52 14 2
50 41 2
54 41 2
41 54 2
59 41 2
60 13 2
60 41 2
41 59 2
1 2 1
2 3 1
3 4 1
4 5 1
5 6 1
6 7 1
7 8 1
8 9 1
9 10 1
10 11 1
11 12 1
13 10 1
10 6 1
6 14 1
15 16 1
16 17 1
17 18 1
18 19 1
19 20 1
20 21 1
21 13 1
22 23 1
23 13 1
24 14 1
26 13 1
26 14 1
14 27 1
27 14 1
14 28 1
28 27 1
27 28 1
28 14 1
14 29 1
29 30 1
13 31 1
31 15 1
15 32 1
32 13 1
30 32 1
32 30 1
14 33 1
33 30 1
30 34 1
34 35 1
35 37 1
37 13 1
39 40 1
40 39 1
39 38 1
41 38 1
38 42 1
43 44 1
44 43 1
13 45 1
45 13 1
41 46 1
46 13 1
41 47 1
47 48 1
48 49 1
49 13 1
13 51 1
51 43 1
41 15 1
15 39 1
39 41 1
30 41 1
30 39 1
14 50 1
50 14 1
14 53 1
53 14 1
54 55 1
55 56 1
56 54 1
54 13 1
14 57 1
57 58 1
58 41 1
59 33 1
33 60 1
60 59 1
13 60 1
59 61 1
61 13 1
13 62 1
62 63 1
63 64 1
64 63 1
63 65 1
65 66 1
66 64 1
64 20 1
20 41 1
