17 62 123
62 17 118
19 17 55
17 19 52
17 26 42
26 17 39
17 32 21
32 17 20
17 81 19
42 17 18
81 17 18
17 42 17
65 17 14
17 65 14
48 19 12
19 48 11
69 62 10
18 19 9
62 69 9
92 17 9
17 105 9
25 17 8
62 19 8
17 92 8
19 18 7
17 25 7
50 48 7
17 69 7
105 17 7
19 62 6
19 22 6
22 19 6
17 50 5
48 17 5
50 19 5
69 17 5
19 42 5
19 98 5
17 18 4
18 17 4
42 19 4
48 50 4
17 48 4
56 17 4
51 17 4
16 17 3
17 31 3
31 17 3
19 50 3
17 56 3
69 74 3
74 69 3
62 42 3
19 92 3
62 81 3
19 105 3
105 107 3
17 16 2
19 37 2
39 17 2
17 39 2
42 18 2
17 55 2
61 17 2
17 58 2
58 17 2
73 17 2
62 74 2
81 62 2
98 99 2
98 62 2
62 98 2
98 51 2
51 98 2
98 19 2
17 51 2
105 19 2
105 62 2
107 17 2
107 62 2
62 105 2
1 2 1
2 3 1
3 4 1
4 5 1
5 6 1
6 7 1
7 8 1
8 9 1
9 8 1
8 10 1
10 11 1
11 12 1
12 13 1
13 14 1
14 15 1
15 16 1
17 13 1
13 7 1
7 17 1
19 20 1
20 18 1
18 21 1
21 22 1
22 23 1
23 24 1
24 25 1
17 27 1
27 26 1
17 28 1
28 17 1
26 29 1
29 30 1
30 17 1
17 33 1
33 17 1
32 34 1
34 17 1
32 35 1
35 32 1
17 36 1
36 19 1
37 17 1
37 19 1
19 38 1
38 19 1
19 39 1
39 40 1
40 39 1
39 41 1
41 19 1
17 43 1
43 18 1
18 44 1
44 45 1
45 42 1
42 44 1
44 42 1
19 46 1
46 47 1
47 42 1
42 48 1
48 49 1
49 17 1
50 17 1
50 51 1
51 50 1
48 52 1
52 50 1
50 53 1
53 50 1
48 54 1
54 48 1
48 51 1
51 48 1
55 17 1
17 57 1
57 58 1
58 59 1
59 60 1
60 61 1
58 56 1
62 63 1
63 17 1
62 56 1
17 64 1
64 17 1
56 65 1
65 66 1
66 17 1
17 67 1
67 17 1
17 68 1
68 17 1
69 70 1
70 62 1
69 71 1
71 69 1
69 72 1
72 69 1
69 73 1
55 62 1
74 62 1
74 17 1
62 75 1
75 17 1
17 76 1
76 17 1
62 77 1
77 17 1
62 20 1
20 78 1
78 17 1
62 79 1
79 80 1
80 17 1
26 82 1
82 17 1
26 83 1
83 84 1
84 19 1
17 85 1
85 86 1
86 42 1
42 69 1
69 87 1
87 69 1
17 88 1
88 62 1
62 18 1
18 58 1
58 62 1
42 62 1
17 89 1
89 90 1
90 91 1
91 19 1
62 51 1
42 58 1
26 51 1
92 19 1
17 93 1
93 17 1
92 94 1
94 19 1
19 95 1
95 17 1
81 96 1
96 81 1
81 73 1
17 61 1
81 97 1
97 19 1
99 19 1
99 100 1
100 19 1
98 101 1
101 19 1
19 102 1
102 62 1
19 103 1
103 19 1
17 104 1
104 105 1
105 106 1
106 105 1
105 47 1
47 107 1
107 105 1
105 51 1
51 105 1
17 107 1
105 108 1
108 17 1
17 109 1
109 62 1
62 110 1
110 62 1
62 111 1
111 17 1
62 112 1
112 113 1
113 17 1
17 114 1
114 62 1
17 115 1
115 17 1
17 110 1
110 17 1
17 116 1
116 117 1
117 118 1
118 117 1
117 119 1
119 118 1
118 26 1
26 62 1
