4 27 29
27 4 27
35 4 17
4 35 17
46 42 15
42 46 13
34 42 6
42 34 6
6 4 5
23 4 5
4 7 4
56 4 4
4 6 4
42 69 4
4 23 4
9 10 3
4 8 3
13 10 3
4 17 3
27 7 3
7 27 3
7 4 3
27 42 3
4 46 3
54 42 3
58 46 3
4 56 3
42 27 3
69 42 3
27 56 3
56 27 3
27 35 3
17 4 3
8 9 2
10 9 2
11 13 2
10 13 2
18 4 2
24 27 2
27 18 2
4 30 2
35 27 2
27 24 2
42 4 2
42 54 2
46 58 2
1 2 1
2 3 1
3 4 1
4 5 1
5 6 1
6 7 1
7 6 1
7 8 1
9 4 1
10 11 1
11 10 1
10 8 1
8 4 1
8 12 1
12 13 1
10 14 1
14 13 1
13 15 1
15 11 1
13 11 1
13 4 1
4 16 1
16 4 1
17 18 1
18 19 1
19 4 1
4 20 1
20 21 1
21 22 1
22 17 1
17 8 1
8 23 1
23 18 1
4 24 1
24 25 1
25 24 1
24 26 1
26 24 1
18 27 1
18 24 1
24 18 1
27 28 1
28 4 1
7 29 1
29 24 1
24 4 1
27 30 1
30 4 1
30 31 1
31 4 1
8 32 1
32 33 1
33 34 1
34 4 1
4 34 1
34 33 1
33 35 1
7 35 1
35 7 1
35 36 1
36 27 1
30 37 1
37 30 1
30 38 1
38 30 1
30 39 1
39 4 1
4 40 1
40 41 1
41 7 1
42 43 1
43 42 1
42 44 1
44 27 1
27 45 1
45 27 1
42 47 1
47 48 1
48 4 1
4 48 1
48 49 1
49 4 1
4 50 1
50 51 1
51 34 1
46 34 1
34 23 1
4 52 1
52 35 1
24 46 1
4 53 1
53 54 1
35 55 1
55 35 1
35 2 1
2 56 1
35 56 1
56 57 1
57 4 1
27 46 1
58 42 1
42 23 1
23 59 1
59 23 1
23 34 1
34 60 1
60 4 1
56 34 1
34 35 1
4 61 1
61 4 1
46 62 1
62 63 1
63 58 1
27 64 1
64 27 1
27 65 1
65 4 1
4 66 1
66 67 1
67 35 1
4 39 1
39 68 1
68 39 1
39 42 1
69 58 1
58 67 1
67 42 1
42 56 1
4 42 1
42 70 1
70 67 1
67 4 1
4 69 1
42 35 1
34 58 1
58 27 1
27 71 1
71 27 1
35 42 1
46 27 1
4 58 1
46 72 1
72 42 1
69 46 1
46 23 1
23 2 1
2 42 1
42 7 1
7 73 1
73 4 1
35 74 1
74 27 1
27 75 1
75 17 1
35 76 1
76 4 1
4 77 1
77 78 1
78 79 1
79 80 1
80 81 1
81 82 1
82 83 1
83 84 1
