17 3 54
3 17 52
21 3 34
3 21 31
27 25 29
25 27 26
16 11 9
11 16 9
21 17 8
25 1 8
3 10 8
10 3 8
2 3 7
3 2 7
11 17 7
1 25 7
17 21 7
5 6 6
7 9 6
17 11 6
6 5 5
9 6 5
9 7 5
25 17 5
14 3 5
37 25 5
6 9 4
17 25 4
25 37 4
3 14 4
4 16 3
17 4 3
3 27 3
25 21 3
32 25 3
25 3 3
3 25 3
25 36 3
1 2 2
3 4 2
4 5 2
4 7 2
6 7 2
4 10 2
10 11 2
11 4 2
14 11 2
16 4 2
16 17 2
3 18 2
1 3 2
18 22 2
22 18 2
25 26 2
26 25 2
27 1 2
4 17 2
17 16 2
25 32 2
36 21 2
25 23 2
23 25 2
21 25 2
5 4 1
7 4 1
7 6 1
6 4 1
4 8 1
8 9 1
9 4 1
4 12 1
12 11 1
11 12 1
12 13 1
13 4 1
10 4 1
7 10 1
4 14 1
11 14 1
11 15 1
15 3 1
16 14 1
14 16 1
4 11 1
17 18 1
18 3 1
18 4 1
4 19 1
19 1 1
3 1 1
1 20 1
20 19 1
19 21 1
18 23 1
23 3 1
3 24 1
24 17 1
25 28 1
28 3 1
3 28 1
28 29 1
29 3 1
3 30 1
30 2 1
2 27 1
2 25 1
1 14 1
16 27 1
3 31 1
31 32 1
17 27 1
25 14 1
14 33 1
33 14 1
14 1 1
1 34 1
34 3 1
21 35 1
35 21 1
21 1 1
3 23 1
23 36 1
36 25 1
3 38 1
38 25 1
3 37 1
36 27 1
1 21 1
25 39 1
39 21 1
27 17 1
21 36 1
36 3 1
25 34 1
34 25 1
27 14 1
14 25 1
10 21 1
21 39 1
39 17 1
17 10 1
2 4 1
4 40 1
40 41 1
41 42 1
42 43 1
43 44 1
44 45 1
45 46 1
46 47 1
47 48 1
48 49 1
