22 4 21
29 22 20
4 22 20
22 29 18
28 29 18
22 35 18
35 22 17
29 28 16
24 20 15
20 22 15
22 20 15
22 17 12
20 29 11
3 4 10
8 4 10
22 23 10
17 22 10
4 3 9
23 22 9
20 24 9
17 28 9
4 8 8
28 17 8
5 7 6
7 3 6
29 20 6
4 5 5
4 7 5
7 8 5
29 23 5
8 7 4
22 25 4
28 22 4
22 24 4
17 45 4
23 29 4
7 5 3
5 4 3
5 8 3
3 7 3
8 13 3
14 4 3
13 8 3
29 27 3
20 10 3
20 27 3
27 20 3
24 22 3
46 17 3
45 17 3
25 35 3
17 48 3
4 17 3
17 4 3
6 4 2
7 4 2
5 3 2
3 11 2
3 8 2
12 5 2
7 12 2
17 6 2
8 3 2
8 5 2
23 24 2
20 26 2
27 28 2
27 29 2
31 22 2
10 20 2
27 24 2
24 27 2
20 17 2
20 25 2
35 28 2
29 35 2
35 29 2
24 28 2
17 29 2
25 22 2
22 45 2
17 46 2
35 25 2
17 30 2
29 25 2
48 17 2
48 45 2
29 24 2
28 20 2
20 48 2
23 20 2
22 68 2
17 69 2
69 17 2
22 28 2
73 27 2
1 2 1
2 3 1
5 6 1
4 6 1
8 6 1
6 8 1
3 6 1
6 9 1
9 3 1
3 10 1
10 3 1
11 3 1
3 12 1
12 7 1
7 13 1
13 3 1
11 7 1
7 14 1
14 3 1
3 15 1
15 3 1
3 13 1
13 5 1
3 5 1
13 4 1
4 11 1
11 8 1
4 14 1
3 16 1
16 5 1
5 17 1
6 17 1
6 5 1
8 14 1
4 13 1
3 14 1
4 18 1
18 4 1
3 19 1
19 20 1
20 21 1
21 22 1
25 24 1
26 20 1
26 27 1
27 30 1
30 31 1
20 31 1
10 22 1
22 10 1
10 25 1
25 32 1
32 23 1
23 33 1
33 23 1
17 20 1
17 34 1
34 24 1
24 29 1
25 20 1
28 35 1
29 36 1
36 22 1
22 37 1
37 38 1
38 24 1
20 39 1
39 20 1
28 40 1
40 28 1
25 23 1
23 41 1
41 22 1
23 25 1
24 42 1
42 24 1
24 23 1
23 43 1
43 20 1
20 44 1
44 22 1
29 43 1
43 22 1
45 46 1
45 47 1
47 17 1
17 24 1
27 35 1
35 17 1
30 17 1
25 29 1
45 48 1
17 49 1
49 23 1
22 46 1
46 22 1
22 50 1
50 22 1
45 27 1
45 20 1
22 51 1
51 30 1
30 45 1
45 29 1
48 46 1
46 20 1
48 20 1
29 17 1
30 28 1
20 28 1
28 52 1
52 27 1
27 17 1
28 53 1
53 20 1
20 23 1
29 54 1
54 55 1
55 17 1
20 56 1
56 57 1
57 22 1
22 58 1
58 59 1
59 25 1
25 60 1
60 61 1
61 25 1
25 62 1
62 63 1
63 22 1
22 64 1
64 22 1
35 65 1
65 22 1
4 66 1
66 4 1
4 67 1
67 4 1
25 4 1
68 17 1
68 4 1
4 69 1
17 70 1
70 22 1
22 15 1
15 22 1
69 22 1
22 71 1
71 22 1
4 72 1
72 22 1
4 24 1
22 73 1
27 73 1
23 74 1
74 23 1
22 75 1
75 20 1
25 76 1
