9 8 80
8 9 75
13 9 37
10 9 35
9 10 33
9 13 32
9 14 31
9 30 27
14 9 26
30 9 26
8 10 16
10 8 16
35 10 14
10 35 13
19 9 11
9 19 10
13 8 9
14 13 9
8 19 9
8 14 8
8 13 7
19 8 7
19 13 7
14 8 6
8 11 5
13 14 5
14 19 5
13 19 5
9 21 5
21 9 5
2 3 4
6 5 4
11 8 4
19 14 4
22 9 4
29 9 4
9 17 4
17 9 4
5 6 3
11 9 3
9 22 3
28 29 3
14 29 3
5 2 2
9 11 2
8 12 2
13 15 2
17 14 2
9 25 2
25 8 2
8 25 2
9 27 2
27 8 2
8 27 2
27 9 2
9 5 2
5 9 2
5 28 2
9 28 2
28 5 2
30 19 2
9 29 2
29 28 2
29 14 2
34 10 2
9 35 2
9 6 2
19 38 2
38 19 2
1 2 1
3 4 1
4 2 1
3 5 1
2 4 1
4 6 1
3 2 1
3 7 1
7 8 1
12 13 1
12 9 1
15 14 1
14 16 1
16 13 1
14 17 1
9 18 1
18 13 1
15 9 1
9 20 1
20 9 1
8 22 1
9 23 1
23 9 1
22 24 1
24 23 1
23 22 1
25 9 1
9 26 1
26 9 1
28 9 1
14 30 1
9 31 1
31 14 1
14 31 1
31 9 1
29 13 1
13 29 1
25 32 1
32 10 1
9 33 1
33 34 1
10 34 1
35 9 1
10 36 1
36 9 1
14 6 1
6 37 1
37 9 1
6 9 1
6 17 1
19 39 1
39 9 1
19 40 1
40 9 1
