5 6 88
6 5 88
6 12 45
12 6 43
8 6 26
11 6 26
6 8 25
6 11 24
5 8 17
8 5 16
23 6 16
26 8 16
8 26 16
6 23 15
12 11 14
14 6 13
14 12 12
5 14 11
6 14 11
11 5 10
5 11 8
11 12 8
14 5 8
6 13 8
12 14 7
13 6 7
6 15 7
5 9 6
9 5 6
12 5 6
5 12 6
11 14 6
15 6 6
12 13 4
14 11 4
22 6 4
2 3 3
3 2 3
13 12 3
16 6 3
5 20 3
21 22 3
6 22 3
13 11 2
15 5 2
6 16 2
6 17 2
6 18 2
18 5 2
19 6 2
6 20 2
20 5 2
20 6 2
6 2 2
2 6 2
2 21 2
6 21 2
21 2 2
22 11 2
11 23 2
22 21 2
11 22 2
25 8 2
6 28 2
28 5 2
5 30 2
1 2 1
2 4 1
4 5 1
6 7 1
7 6 1
9 6 1
6 9 1
9 10 1
10 9 1
11 13 1
13 14 1
5 15 1
5 16 1
17 6 1
16 5 1
17 16 1
5 18 1
18 6 1
6 19 1
21 6 1
23 14 1
6 24 1
24 11 1
11 24 1
24 6 1
22 12 1
12 22 1
20 19 1
6 25 1
8 25 1
6 26 1
26 6 1
6 27 1
27 23 1
23 11 1
28 29 1
29 6 1
5 28 1
30 5 1
30 6 1
