23 8 52
8 23 50
8 11 47
11 8 46
8 12 29
12 8 28
8 77 22
77 8 18
11 12 15
76 11 15
12 11 13
11 76 13
12 28 12
28 12 12
22 23 11
23 22 10
8 9 8
9 8 8
76 8 6
8 10 5
10 8 5
34 35 5
8 76 5
128 8 5
44 8 5
13 8 4
8 20 4
28 11 4
8 28 4
35 34 4
44 11 4
11 47 4
12 54 4
22 12 4
77 12 4
8 142 4
8 13 3
20 8 3
11 28 3
12 23 3
41 11 3
8 44 3
45 12 3
47 11 3
8 47 3
8 52 3
53 11 3
54 12 3
12 76 3
90 89 3
89 90 3
12 22 3
22 28 3
11 77 3
77 28 3
28 77 3
22 119 3
8 139 3
11 142 3
142 8 3
8 148 3
3 8 2
8 3 2
8 21 2
21 11 2
25 27 2
30 23 2
11 41 2
8 42 2
42 8 2
12 45 2
47 8 2
8 50 2
52 11 2
11 53 2
23 75 2
75 23 2
28 76 2
28 8 2
76 12 2
81 23 2
22 91 2
22 93 2
93 22 2
76 96 2
28 22 2
119 22 2
127 128 2
77 128 2
11 128 2
139 44 2
44 12 2
142 11 2
142 44 2
44 76 2
148 94 2
77 150 2
148 44 2
148 8 2
1 2 1
2 3 1
3 4 1
4 5 1
5 6 1
6 3 1
3 7 1
7 3 1
3 11 1
8 14 1
14 12 1
12 15 1
15 16 1
16 17 1
17 8 1
11 18 1
18 11 1
11 19 1
19 13 1
20 11 1
21 12 1
12 21 1
11 21 1
21 22 1
22 24 1
24 14 1
14 25 1
25 26 1
26 27 1
27 25 1
27 11 1
11 25 1
27 8 1
8 29 1
29 1 1
1 30 1
23 31 1
31 23 1
23 32 1
32 33 1
33 23 1
23 30 1
23 11 1
28 14 1
14 8 1
28 23 1
23 12 1
8 34 1
34 36 1
36 34 1
34 37 1
37 38 1
38 39 1
39 34 1
35 28 1
28 40 1
40 8 1
8 41 1
11 43 1
43 8 1
11 45 1
12 46 1
46 11 1
47 48 1
48 8 1
11 49 1
49 8 1
50 8 1
8 51 1
51 8 1
47 12 1
12 51 1
51 11 1
11 52 1
52 8 1
52 53 1
8 53 1
53 8 1
54 55 1
55 56 1
56 11 1
11 56 1
56 8 1
11 57 1
57 58 1
58 59 1
59 60 1
60 61 1
61 62 1
62 63 1
63 64 1
64 65 1
65 66 1
66 67 1
67 68 1
68 67 1
67 69 1
69 11 1
11 69 1
69 70 1
70 71 1
71 72 1
72 8 1
8 73 1
73 74 1
74 23 1
23 28 1
76 28 1
8 78 1
78 79 1
79 22 1
23 80 1
80 81 1
23 81 1
23 82 1
82 22 1
22 83 1
83 22 1
22 84 1
84 22 1
22 85 1
85 22 1
22 86 1
86 87 1
87 22 1
22 78 1
78 22 1
22 88 1
88 89 1
89 22 1
22 90 1
90 22 1
91 22 1
91 92 1
92 22 1
22 94 1
94 8 1
8 95 1
95 8 1
96 76 1
96 11 1
11 97 1
97 22 1
11 98 1
98 11 1
11 99 1
99 11 1
12 77 1
8 100 1
100 101 1
101 77 1
77 102 1
102 8 1
8 22 1
22 103 1
103 104 1
104 77 1
77 105 1
105 22 1
12 106 1
106 107 1
107 12 1
12 107 1
107 11 1
12 108 1
108 109 1
109 110 1
110 111 1
111 112 1
112 113 1
113 114 1
114 115 1
115 116 1
116 117 1
117 118 1
118 22 1
119 120 1
120 121 1
121 22 1
22 122 1
122 76 1
12 123 1
123 8 1
12 124 1
124 8 1
8 124 1
124 125 1
125 126 1
126 127 1
128 77 1
77 11 1
77 129 1
129 130 1
130 131 1
131 128 1
128 76 1
76 127 1
8 128 1
128 22 1
22 14 1
14 22 1
23 128 1
128 102 1
102 132 1
132 12 1
12 66 1
66 8 1
8 133 1
133 94 1
94 133 1
133 66 1
66 134 1
134 8 1
8 135 1
135 44 1
44 136 1
136 137 1
137 138 1
138 8 1
139 8 1
44 139 1
139 140 1
140 44 1
139 141 1
141 44 1
11 143 1
143 12 1
12 44 1
44 144 1
144 8 1
11 145 1
145 8 1
8 146 1
146 11 1
11 147 1
147 11 1
11 136 1
136 11 1
11 44 1
94 149 1
149 44 1
150 77 1
150 44 1
76 148 1
94 148 1
12 151 1
151 8 1
11 148 1
44 148 1
148 152 1
152 144 1
144 139 1
11 151 1
151 153 1
153 8 1
50 22 1
22 8 1
22 44 1
11 89 1
89 154 1
154 44 1
44 155 1
