20 3 47
3 20 44
3 25 42
25 3 40
25 23 37
23 25 34
3 2 26
2 3 25
2 4 24
4 2 24
3 18 20
18 3 16
3 35 15
22 25 14
25 20 13
13 3 12
3 13 12
3 19 12
20 25 11
35 3 11
30 3 10
12 3 10
17 3 9
3 22 9
3 30 9
19 3 9
3 12 9
4 3 8
3 4 8
25 22 8
21 3 8
25 60 8
22 3 7
3 21 7
25 21 7
3 17 6
20 19 6
21 25 6
2 25 6
19 17 5
25 2 5
18 17 4
3 23 4
23 3 4
18 31 4
22 45 4
60 25 4
74 3 4
3 74 4
6 7 3
16 3 3
17 19 3
23 24 3
18 25 3
31 18 3
38 3 3
19 21 3
17 2 3
2 17 3
45 22 3
25 48 3
48 25 3
25 57 3
60 22 3
24 23 3
25 82 3
82 25 3
7 6 2
3 14 2
14 3 2
3 16 2
17 18 2
17 20 2
20 21 2
21 16 2
16 21 2
20 22 2
16 25 2
25 26 2
33 18 2
19 20 2
2 30 2
43 23 2
3 24 2
25 47 2
47 25 2
23 61 2
22 60 2
60 3 2
22 63 2
65 22 2
23 65 2
3 72 2
72 3 2
60 23 2
25 65 2
65 25 2
35 82 2
82 35 2
3 82 2
82 3 2
84 35 2
35 84 2
4 85 2
25 35 2
35 25 2
1 2 1
3 5 1
5 3 1
3 6 1
7 3 1
3 8 1
8 2 1
4 9 1
9 10 1
10 11 1
11 12 1
12 11 1
11 13 1
13 2 1
2 15 1
15 3 1
19 18 1
21 20 1
20 16 1
24 25 1
23 16 1
25 16 1
26 23 1
26 25 1
22 18 1
25 18 1
18 27 1
27 3 1
3 28 1
28 20 1
3 29 1
29 3 1
18 32 1
32 18 1
31 20 1
19 33 1
33 20 1
20 33 1
18 33 1
18 19 1
25 34 1
34 3 1
35 2 1
2 35 1
35 12 1
30 2 1
3 36 1
36 2 1
2 22 1
22 20 1
25 24 1
24 20 1
2 37 1
37 22 1
22 38 1
3 38 1
21 39 1
39 25 1
25 40 1
40 20 1
19 41 1
41 3 1
25 42 1
42 17 1
17 35 1
35 17 1
17 43 1
23 43 1
22 44 1
44 43 1
43 25 1
25 17 1
24 3 1
24 22 1
45 20 1
20 17 1
17 22 1
23 46 1
46 25 1
25 46 1
46 3 1
25 49 1
49 25 1
3 50 1
50 25 1
25 51 1
51 3 1
25 52 1
52 22 1
22 53 1
53 14 1
21 19 1
21 54 1
54 55 1
55 21 1
35 19 1
19 35 1
3 56 1
56 3 1
57 3 1
3 58 1
58 25 1
22 59 1
59 3 1
61 25 1
22 62 1
62 22 1
63 22 1
63 25 1
25 64 1
64 22 1
60 20 1
19 2 1
57 25 1
57 22 1
22 23 1
23 22 1
22 65 1
3 33 1
33 25 1
25 38 1
35 60 1
65 66 1
66 67 1
67 3 1
3 68 1
68 3 1
3 69 1
69 70 1
70 71 1
71 3 1
20 72 1
72 2 1
2 20 1
3 73 1
73 74 1
74 20 1
3 75 1
75 76 1
76 25 1
25 77 1
77 60 1
23 77 1
77 22 1
22 24 1
65 78 1
78 25 1
60 65 1
61 3 1
3 79 1
79 77 1
77 23 1
23 80 1
80 81 1
81 3 1
35 83 1
83 82 1
82 83 1
83 3 1
14 12 1
12 84 1
35 23 1
23 44 1
44 23 1
25 44 1
44 25 1
23 60 1
84 3 1
3 84 1
84 25 1
21 22 1
21 4 1
85 4 1
85 86 1
86 4 1
4 87 1
87 25 1
25 88 1
88 25 1
25 89 1
89 4 1
2 90 1
90 91 1
