26 8 52
8 26 50
8 11 47
11 8 46
8 12 28
12 8 27
8 83 22
83 8 18
11 12 15
81 11 15
11 81 13
12 11 12
12 31 12
31 12 12
25 26 11
26 25 10
8 9 8
9 8 8
81 8 6
8 10 5
10 8 5
39 40 5
8 81 5
134 8 5
49 8 5
13 8 4
8 23 4
31 11 4
8 31 4
40 39 4
49 11 4
11 52 4
12 59 4
25 12 4
83 12 4
8 148 4
8 13 3
23 8 3
12 26 3
46 11 3
8 49 3
50 12 3
52 11 3
8 52 3
58 11 3
59 12 3
12 81 3
96 95 3
95 96 3
12 25 3
25 31 3
11 83 3
83 31 3
31 83 3
25 125 3
8 145 3
11 148 3
148 8 3
8 154 3
2 8 2
8 2 2
8 24 2
24 11 2
28 30 2
34 26 2
11 46 2
8 47 2
47 8 2
12 50 2
52 8 2
8 55 2
57 11 2
8 57 2
11 58 2
26 80 2
80 26 2
31 81 2
11 31 2
31 8 2
81 12 2
87 26 2
25 97 2
25 99 2
99 25 2
81 102 2
31 25 2
125 25 2
133 134 2
83 134 2
11 134 2
145 49 2
49 12 2
148 11 2
148 49 2
49 81 2
154 100 2
83 156 2
154 49 2
154 8 2
1 2 1
2 3 1
3 4 1
4 5 1
5 2 1
2 6 1
6 7 1
7 2 1
2 11 1
8 14 1
14 12 1
12 15 1
15 16 1
16 17 1
17 8 1
12 18 1
18 11 1
8 19 1
19 12 1
11 20 1
20 11 1
11 21 1
21 22 1
22 13 1
23 11 1
24 12 1
12 24 1
11 24 1
24 25 1
25 27 1
27 14 1
14 28 1
28 29 1
29 30 1
30 28 1
30 11 1
11 28 1
30 8 1
8 32 1
32 33 1
33 34 1
26 35 1
35 26 1
26 36 1
36 37 1
37 26 1
26 34 1
26 11 1
11 38 1
38 31 1
31 14 1
14 8 1
31 26 1
26 12 1
8 39 1
39 41 1
41 39 1
39 42 1
42 43 1
43 44 1
44 39 1
40 31 1
31 45 1
45 8 1
8 46 1
11 48 1
48 8 1
11 50 1
12 51 1
51 11 1
52 53 1
53 8 1
11 54 1
54 8 1
55 8 1
8 56 1
56 8 1
52 12 1
12 56 1
56 11 1
12 57 1
11 57 1
57 8 1
57 58 1
8 58 1
58 8 1
59 60 1
60 61 1
61 11 1
11 61 1
61 8 1
11 62 1
62 63 1
63 64 1
64 65 1
65 66 1
66 67 1
67 68 1
68 69 1
69 70 1
70 71 1
71 72 1
72 73 1
73 72 1
72 74 1
74 11 1
11 74 1
74 75 1
75 76 1
76 77 1
77 8 1
8 78 1
78 79 1
79 26 1
26 31 1
81 31 1
8 82 1
82 8 1
8 84 1
84 85 1
85 25 1
26 86 1
86 87 1
26 87 1
26 88 1
88 25 1
25 89 1
89 25 1
25 90 1
90 25 1
25 91 1
91 25 1
25 92 1
92 93 1
93 25 1
25 84 1
84 25 1
25 94 1
94 95 1
95 25 1
25 96 1
96 25 1
97 25 1
97 98 1
98 25 1
25 100 1
100 8 1
8 101 1
101 8 1
102 81 1
102 11 1
11 103 1
103 25 1
11 104 1
104 11 1
11 105 1
105 11 1
12 83 1
8 106 1
106 107 1
107 83 1
83 108 1
108 8 1
8 25 1
25 109 1
109 110 1
110 83 1
83 111 1
111 25 1
12 112 1
112 113 1
113 12 1
12 113 1
113 11 1
12 114 1
114 115 1
115 116 1
116 117 1
117 118 1
118 119 1
119 120 1
120 121 1
121 122 1
122 123 1
123 124 1
124 25 1
125 126 1
126 127 1
127 25 1
25 128 1
128 81 1
12 129 1
129 8 1
12 130 1
130 8 1
8 130 1
130 131 1
131 132 1
132 133 1
134 83 1
83 11 1
83 135 1
135 136 1
136 137 1
137 134 1
134 81 1
81 133 1
8 134 1
134 25 1
25 14 1
14 25 1
26 134 1
134 108 1
108 138 1
138 12 1
12 71 1
71 8 1
8 139 1
139 100 1
100 139 1
139 71 1
71 140 1
140 8 1
8 141 1
141 49 1
49 142 1
142 143 1
143 144 1
144 8 1
145 8 1
49 145 1
145 146 1
146 49 1
145 147 1
147 49 1
11 149 1
149 12 1
12 49 1
49 150 1
150 8 1
11 151 1
151 8 1
8 152 1
152 11 1
11 153 1
153 11 1
11 142 1
142 11 1
11 49 1
100 155 1
155 49 1
156 83 1
156 157 1
157 49 1
81 154 1
100 154 1
12 158 1
158 8 1
11 154 1
49 154 1
154 159 1
159 150 1
150 145 1
11 158 1
158 160 1
160 8 1
55 25 1
25 8 1
25 49 1
11 95 1
95 161 1
161 49 1
