14 15 47
15 14 44
4 5 6
11 5 6
5 10 6
8 3 6
5 11 6
3 5 5
3 4 4
10 11 4
6 5 4
13 14 4
5 3 4
5 14 4
11 8 4
15 4 4
5 6 3
4 9 3
4 11 3
15 5 3
14 11 3
11 4 3
3 9 3
9 3 3
4 8 3
15 11 3
3 15 3
10 4 2
8 11 2
10 5 2
5 9 2
9 6 2
3 8 2
11 3 2
6 10 2
10 8 2
14 5 2
9 8 2
11 14 2
5 15 2
11 10 2
6 15 2
8 10 2
11 15 2
8 14 2
1 2 1
2 3 1
6 7 1
7 8 1
8 9 1
9 10 1
9 12 1
12 8 1
5 13 1
15 16 1
16 13 1
13 15 1
15 13 1
14 17 1
17 13 1
14 13 1
14 3 1
3 6 1
10 3 1
10 9 1
9 4 1
11 6 1
3 11 1
11 18 1
18 14 1
14 9 1
8 6 1
8 15 1
14 4 1
4 19 1
19 5 1
14 8 1
8 5 1
9 15 1
10 14 1
14 10 1
11 20 1
20 11 1
5 4 1
15 6 1
14 18 1
18 11 1
11 9 1
4 14 1
14 21 1
21 22 1
22 14 1
15 21 1
21 15 1
15 22 1
22 21 1
21 5 1
10 15 1
15 23 1
23 6 1
6 3 1
9 11 1
5 24 1
24 14 1
3 14 1
5 8 1
8 4 1
15 3 1
14 25 1
