8 3 33
3 8 33
2 3 24
3 2 22
21 8 20
8 21 20
2 8 16
8 9 15
9 8 15
8 2 14
8 7 9
7 8 8
8 19 8
20 21 8
2 26 8
21 20 7
21 25 7
26 2 7
25 21 6
26 3 6
3 26 6
6 8 5
9 2 5
2 9 5
8 12 5
16 8 5
3 27 5
27 3 5
14 3 5
3 14 5
19 8 5
8 26 5
12 8 4
14 2 4
8 16 4
21 19 4
26 27 4
25 30 4
30 21 4
8 29 4
26 8 4
29 2 4
9 10 3
9 14 3
14 9 3
2 14 3
9 3 3
3 9 3
22 23 3
23 21 3
19 21 3
3 29 3
29 26 3
30 25 3
21 30 3
29 8 3
23 8 3
2 29 3
2 5 2
5 2 2
6 7 2
7 6 2
10 9 2
8 11 2
11 8 2
8 6 2
8 14 2
14 13 2
13 2 2
2 7 2
23 22 2
27 26 2
14 26 2
27 14 2
29 3 2
19 23 2
2 34 2
34 2 2
1 2 1
2 4 1
4 2 1
3 6 1
10 8 1
12 13 1
13 9 1
2 15 1
15 2 1
2 13 1
13 14 1
7 2 1
7 16 1
8 17 1
17 8 1
7 18 1
18 6 1
19 20 1
19 22 1
21 24 1
24 21 1
21 26 1
26 14 1
26 28 1
28 2 1
26 21 1
21 2 1
26 29 1
26 23 1
19 30 1
30 2 1
2 19 1
21 3 1
3 30 1
30 31 1
31 8 1
14 23 1
8 32 1
32 8 1
26 33 1
33 3 1
8 23 1
23 2 1
2 21 1
21 23 1
21 29 1
2 35 1
35 2 1
2 6 1
8 36 1
36 37 1
37 2 1
3 38 1
38 8 1
