5 11 13
13 5 12
10 12 12
12 10 12
11 3 11
11 5 10
6 14 10
5 12 10
5 13 9
12 5 9
5 27 9
5 6 8
14 6 8
13 3 8
3 13 8
20 5 8
3 11 8
20 21 7
26 5 7
19 6 6
21 20 6
5 19 6
19 5 6
6 19 5
5 20 5
21 9 5
27 26 5
27 5 5
6 5 4
9 10 4
9 21 4
5 26 4
25 20 4
22 5 3
13 22 3
22 13 3
6 23 3
23 6 3
24 20 3
6 11 3
20 25 3
10 9 2
10 11 2
11 9 2
11 13 2
6 20 2
26 6 2
20 24 2
1 2 1
2 3 1
3 4 1
4 5 1
6 7 1
7 5 1
6 8 1
8 9 1
9 11 1
9 8 1
8 12 1
12 11 1
11 6 1
14 10 1
11 15 1
15 16 1
16 17 1
17 18 1
18 19 1
21 22 1
12 13 1
20 12 1
12 21 1
21 10 1
10 6 1
14 11 1
3 24 1
24 25 1
25 24 1
20 26 1
26 27 1
3 25 1
3 20 1
11 20 1
5 28 1
28 29 1
29 22 1
5 22 1
11 21 1
