13 21 17
21 13 17
15 13 15
13 15 15
19 13 14
13 19 12
19 15 11
32 13 11
15 19 10
13 32 10
20 19 9
35 32 7
19 20 5
15 20 5
24 25 4
25 24 4
32 34 4
13 35 4
32 35 4
14 13 3
13 14 3
29 9 3
9 29 3
9 30 3
9 15 3
34 32 3
35 13 3
20 15 3
44 43 3
43 32 3
13 20 3
11 12 2
19 23 2
23 19 2
30 9 2
20 22 2
22 20 2
19 31 2
31 19 2
6 32 2
32 33 2
15 32 2
32 9 2
15 9 2
9 32 2
32 43 2
32 44 2
1 2 1
2 3 1
3 4 1
4 5 1
5 4 1
4 6 1
6 7 1
7 8 1
8 6 1
6 9 1
9 10 1
10 9 1
9 11 1
12 11 1
11 13 1
13 5 1
5 14 1
14 15 1
15 16 1
16 13 1
13 17 1
17 13 1
13 18 1
18 6 1
6 19 1
19 18 1
18 13 1
13 9 1
9 20 1
19 22 1
22 19 1
19 24 1
24 9 1
9 26 1
26 27 1
27 28 1
28 29 1
29 30 1
19 6 1
32 31 1
31 32 1
33 32 1
33 6 1
34 35 1
32 36 1
36 35 1
32 37 1
37 9 1
9 37 1
37 38 1
38 9 1
9 39 1
39 29 1
29 4 1
4 12 1
12 9 1
30 40 1
40 9 1
30 41 1
41 4 1
4 11 1
12 15 1
9 12 1
12 5 1
5 32 1
32 10 1
10 11 1
11 32 1
32 42 1
42 9 1
32 4 1
4 32 1
32 15 1
43 44 1
43 19 1
20 13 1
20 32 1
