3 30 13
30 3 11
2 3 9
3 4 8
3 16 8
16 3 8
3 2 7
4 3 7
9 15 7
15 9 7
2 25 7
25 2 6
11 14 4
14 9 4
26 31 4
3 45 4
45 3 4
5 3 3
8 9 3
10 8 3
8 10 3
11 9 3
14 11 3
9 16 3
31 26 3
45 2 3
3 5 2
9 10 2
9 8 2
13 14 2
14 16 2
16 14 2
9 14 2
9 11 2
16 9 2
9 23 2
23 9 2
26 15 2
15 26 2
27 28 2
31 2 2
2 34 2
34 2 2
2 26 2
2 35 2
35 2 2
38 3 2
3 14 2
2 45 2
1 2 1
4 5 1
5 6 1
6 5 1
3 6 1
6 2 1
2 7 1
7 8 1
8 11 1
11 8 1
10 11 1
8 12 1
12 8 1
9 12 1
12 13 1
14 13 1
13 15 1
15 14 1
16 11 1
15 16 1
16 15 1
10 9 1
14 17 1
17 16 1
16 18 1
18 19 1
19 20 1
20 8 1
8 21 1
21 22 1
22 9 1
9 24 1
24 13 1
14 2 1
25 26 1
26 27 1
28 27 1
28 29 1
29 9 1
9 30 1
30 31 1
31 32 1
32 31 1
31 33 1
33 2 1
2 31 1
26 36 1
36 37 1
37 25 1
25 38 1
3 39 1
39 30 1
30 40 1
40 3 1
3 9 1
9 32 1
32 9 1
9 3 1
9 2 1
2 13 1
13 9 1
9 5 1
5 27 1
27 36 1
36 41 1
41 36 1
36 12 1
12 9 1
9 42 1
42 30 1
30 12 1
12 6 1
6 22 1
22 30 1
30 43 1
43 30 1
30 44 1
44 3 1
2 46 1
46 2 1
30 47 1
47 30 1
30 38 1
38 12 1
12 48 1
48 49 1
49 45 1
14 3 1
30 39 1
39 38 1
3 38 1
