13 41 12
41 13 11
24 11 10
34 11 10
9 26 10
11 34 9
26 9 9
11 12 8
11 24 8
12 11 7
34 36 7
36 34 7
39 6 7
13 11 7
11 13 6
4 5 5
5 4 5
20 21 5
20 22 5
26 27 5
27 26 5
32 26 5
6 39 5
6 13 4
21 20 4
22 20 4
26 31 4
26 32 4
13 6 3
9 15 3
13 18 3
18 13 3
25 26 3
31 26 3
35 34 3
36 11 3
11 36 3
12 13 3
13 12 3
9 44 3
9 47 3
47 9 3
3 4 2
4 6 2
9 7 2
7 9 2
11 6 2
16 9 2
13 20 2
22 13 2
13 22 2
26 25 2
34 35 2
29 38 2
6 4 2
42 13 2
41 42 2
11 43 2
43 11 2
44 9 2
45 9 2
9 48 2
48 9 2
1 2 1
2 3 1
6 7 1
7 8 1
8 9 1
9 10 1
10 9 1
9 11 1
6 14 1
14 9 1
15 9 1
15 16 1
9 16 1
15 17 1
17 9 1
9 13 1
13 19 1
19 20 1
20 18 1
18 20 1
21 13 1
20 13 1
22 21 1
21 22 1
20 23 1
23 20 1
20 24 1
12 24 1
11 25 1
26 28 1
28 26 1
26 29 1
29 26 1
26 30 1
30 26 1
26 11 1
11 32 1
32 27 1
27 32 1
31 11 1
11 33 1
33 11 1
11 28 1
28 35 1
6 37 1
37 6 1
6 22 1
22 37 1
37 20 1
22 6 1
6 29 1
38 29 1
38 6 1
4 3 1
4 39 1
6 40 1
40 39 1
13 42 1
42 41 1
11 9 1
44 45 1
9 45 1
9 46 1
46 9 1
26 49 1
49 26 1
