19 13 18
13 19 18
13 17 15
9 46 15
46 9 15
18 7 14
17 13 14
20 13 13
7 18 12
13 20 12
9 10 9
10 9 9
23 8 9
8 23 9
19 22 7
19 20 6
20 19 6
22 19 6
8 13 6
13 8 6
43 7 6
17 25 5
28 17 5
38 35 5
7 43 5
9 7 4
9 22 4
22 9 4
24 17 4
17 27 4
17 34 4
35 38 4
22 18 4
7 40 4
25 17 4
7 9 3
17 24 3
27 17 3
31 28 3
34 17 3
35 39 3
18 22 3
40 7 3
17 26 3
7 8 2
13 15 2
26 17 2
17 31 2
39 35 2
44 9 2
9 44 2
9 47 2
47 9 2
1 2 1
2 3 1
3 4 1
4 5 1
5 4 1
4 6 1
6 7 1
8 3 1
3 9 1
7 4 1
4 9 1
8 9 1
9 11 1
11 12 1
12 13 1
13 14 1
14 13 1
15 13 1
15 16 1
16 17 1
17 9 1
9 18 1
9 19 1
13 21 1
21 9 1
9 23 1
23 24 1
25 26 1
27 28 1
17 28 1
19 17 1
17 29 1
29 17 1
17 30 1
30 17 1
17 32 1
32 17 1
17 33 1
33 17 1
34 28 1
17 16 1
16 13 1
17 35 1
35 36 1
36 37 1
37 38 1
39 19 1
13 22 1
40 41 1
41 19 1
22 13 1
13 32 1
32 8 1
8 20 1
13 42 1
42 7 1
7 13 1
19 43 1
7 44 1
44 45 1
45 9 1
9 48 1
48 9 1
9 17 1
26 28 1
28 31 1
28 13 1
26 25 1
25 31 1
31 17 1
