10 14 41
14 10 40
18 3 22
3 18 20
28 10 19
10 28 18
3 19 14
19 3 13
10 22 11
22 10 11
12 19 9
18 42 9
23 20 8
24 26 8
42 18 8
20 23 7
26 24 7
28 29 7
29 28 7
36 3 7
3 36 7
19 12 7
20 21 6
18 32 6
32 18 6
3 4 5
4 3 5
6 3 5
21 20 5
27 10 5
10 29 5
29 10 5
3 6 4
3 12 4
10 27 4
31 24 4
12 10 3
10 12 3
24 30 3
24 31 3
35 38 3
20 43 3
43 20 3
3 7 2
7 3 2
3 9 2
9 10 2
12 18 2
19 18 2
10 24 2
18 9 2
9 18 2
33 18 2
18 33 2
18 35 2
38 18 2
1 2 1
2 3 1
3 5 1
5 3 1
7 8 1
8 7 1
10 11 1
11 12 1
12 13 1
13 10 1
14 15 1
15 16 1
16 10 1
10 17 1
17 18 1
18 6 1
6 12 1
18 12 1
12 3 1
12 6 1
18 20 1
20 22 1
22 20 1
21 23 1
20 9 1
9 23 1
23 24 1
24 10 1
24 25 1
25 24 1
26 12 1
12 9 1
27 28 1
30 31 1
30 24 1
30 18 1
9 33 1
33 34 1
34 35 1
35 14 1
10 3 1
19 36 1
36 35 1
35 37 1
37 38 1
38 39 1
39 40 1
40 41 1
41 35 1
35 18 1
38 35 1
18 10 1
14 12 1
10 19 1
19 32 1
32 22 1
22 42 1
42 22 1
22 17 1
17 6 1
6 22 1
22 18 1
18 22 1
22 3 1
42 20 1
20 27 1
12 27 1
