9 25 49
25 9 43
9 83 25
83 9 23
21 9 20
9 21 19
63 9 17
9 29 15
9 63 15
29 9 14
36 9 11
9 44 8
9 36 7
44 9 7
53 9 7
9 39 6
39 9 6
84 9 6
25 102 6
25 26 5
9 53 5
20 9 4
41 39 4
9 54 4
25 52 4
86 85 4
36 21 4
21 36 4
95 21 4
25 99 4
102 101 4
25 101 4
101 25 4
102 25 4
25 83 4
12 9 3
9 13 3
9 20 3
24 25 3
26 25 3
39 36 3
9 41 3
44 45 3
45 44 3
25 47 3
47 25 3
9 47 3
52 25 3
9 84 3
85 86 3
96 25 3
101 102 3
101 100 3
100 25 3
99 25 3
25 106 3
116 21 3
21 95 3
13 9 2
27 21 2
21 24 2
24 26 2
26 30 2
30 9 2
9 34 2
34 9 2
9 38 2
38 9 2
39 41 2
47 9 2
50 9 2
54 25 2
52 53 2
59 9 2
71 25 2
83 84 2
85 83 2
100 101 2
102 9 2
83 25 2
9 120 2
128 129 2
129 87 2
9 87 2
1 2 1
2 3 1
3 4 1
4 5 1
5 6 1
6 7 1
7 8 1
8 9 1
9 10 1
10 11 1
11 12 1
9 12 1
13 12 1
9 14 1
14 15 1
15 16 1
16 17 1
17 9 1
9 18 1
18 19 1
19 20 1
21 22 1
22 9 1
21 23 1
23 24 1
26 27 1
25 27 1
26 9 1
9 28 1
28 9 1
9 24 1
29 24 1
9 31 1
31 9 1
9 32 1
32 9 1
9 33 1
33 9 1
9 35 1
35 36 1
9 37 1
37 9 1
38 36 1
36 38 1
39 40 1
40 39 1
36 39 1
39 42 1
42 39 1
9 43 1
43 36 1
44 46 1
46 44 1
44 25 1
47 41 1
41 9 1
25 48 1
48 9 1
25 49 1
49 50 1
9 51 1
51 52 1
52 9 1
53 51 1
51 9 1
25 53 1
9 52 1
9 55 1
55 9 1
9 56 1
56 25 1
25 54 1
54 50 1
9 57 1
57 58 1
58 59 1
9 59 1
9 60 1
60 61 1
61 62 1
62 9 1
25 63 1
9 64 1
64 9 1
63 65 1
65 63 1
9 66 1
66 67 1
67 9 1
9 68 1
68 9 1
25 7 1
7 69 1
69 25 1
25 70 1
70 71 1
25 72 1
72 63 1
9 73 1
73 74 1
74 9 1
9 7 1
7 54 1
54 75 1
75 76 1
76 77 1
77 9 1
54 78 1
78 25 1
25 79 1
79 9 1
9 80 1
80 25 1
9 81 1
81 9 1
25 82 1
82 9 1
83 85 1
9 86 1
86 87 1
87 83 1
83 86 1
86 88 1
88 89 1
89 86 1
83 36 1
36 90 1
90 84 1
83 91 1
91 83 1
83 92 1
92 9 1
9 93 1
93 25 1
25 94 1
94 95 1
21 96 1
25 97 1
97 98 1
98 25 1
99 100 1
25 100 1
99 103 1
103 25 1
25 6 1
6 94 1
94 9 1
9 104 1
104 25 1
99 101 1
101 105 1
105 102 1
106 25 1
25 105 1
105 25 1
106 99 1
106 107 1
107 108 1
108 109 1
109 9 1
9 105 1
105 99 1
99 110 1
110 111 1
111 103 1
103 99 1
99 112 1
112 99 1
25 113 1
113 9 1
41 83 1
25 95 1
95 114 1
114 115 1
115 116 1
21 114 1
114 102 1
102 117 1
117 114 1
114 116 1
21 54 1
54 116 1
116 95 1
21 118 1
118 119 1
119 17 1
17 116 1
95 83 1
83 41 1
41 25 1
25 96 1
83 96 1
120 121 1
121 21 1
120 21 1
9 122 1
122 123 1
123 124 1
124 125 1
125 124 1
124 126 1
126 127 1
127 128 1
129 130 1
130 129 1
87 129 1
129 128 1
129 131 1
131 132 1
132 129 1
87 133 1
133 130 1
130 134 1
134 135 1
135 136 1
136 87 1
87 124 1
124 137 1
137 138 1
138 54 1
54 96 1
96 139 1
139 140 1
140 139 1
139 141 1
141 142 1
142 143 1
143 144 1
144 142 1
142 145 1
145 96 1
96 146 1
146 147 1
147 25 1
25 148 1
148 149 1
149 150 1
150 21 1
21 151 1
151 25 1
25 152 1
152 146 1
146 25 1
25 146 1
146 153 1
153 154 1
154 153 1
153 155 1
155 153 1
153 146 1
146 71 1
25 156 1
156 157 1
157 96 1
96 158 1
158 96 1
96 9 1
54 159 1
159 89 1
89 160 1
160 153 1
153 161 1
161 162 1
162 9 1
9 163 1
163 9 1
9 146 1
146 156 1
156 9 1
9 164 1
164 9 1
9 165 1
165 166 1
166 9 1
9 167 1
167 9 1
9 168 1
168 159 1
159 9 1
9 169 1
169 21 1
9 85 1
85 25 1
25 85 1
85 170 1
170 9 1
87 9 1
87 85 1
85 9 1
83 171 1
171 172 1
172 9 1
