10 26 49
26 10 43
10 84 25
84 10 23
22 10 20
10 22 19
64 10 17
10 30 15
10 64 15
30 10 14
37 10 11
10 45 8
10 37 7
45 10 7
54 10 7
10 40 6
40 10 6
85 10 6
26 103 6
26 27 5
10 54 5
21 10 4
42 40 4
10 55 4
26 53 4
87 86 4
37 22 4
22 37 4
96 22 4
26 100 4
103 102 4
26 102 4
102 26 4
103 26 4
26 84 4
13 10 3
10 14 3
10 21 3
25 26 3
27 26 3
40 37 3
10 42 3
45 46 3
46 45 3
26 48 3
48 26 3
10 48 3
53 26 3
10 85 3
86 87 3
97 26 3
102 103 3
102 101 3
101 26 3
100 26 3
26 107 3
117 22 3
22 96 3
14 10 2
28 22 2
22 25 2
25 27 2
27 31 2
31 10 2
10 35 2
35 10 2
10 39 2
39 10 2
40 42 2
48 10 2
51 10 2
55 26 2
53 54 2
60 10 2
72 26 2
84 85 2
86 84 2
101 102 2
103 10 2
84 26 2
10 121 2
129 130 2
130 88 2
10 88 2
1 2 1
2 3 1
3 4 1
4 5 1
5 6 1
6 7 1
7 8 1
8 9 1
9 10 1
10 11 1
11 12 1
12 13 1
10 13 1
14 13 1
10 15 1
15 16 1
16 17 1
17 18 1
18 10 1
10 19 1
19 20 1
20 21 1
22 23 1
23 10 1
22 24 1
24 25 1
27 28 1
26 28 1
27 10 1
10 29 1
29 10 1
10 25 1
30 25 1
10 32 1
32 10 1
10 33 1
33 10 1
10 34 1
34 10 1
10 36 1
36 37 1
10 38 1
38 10 1
39 37 1
37 39 1
40 41 1
41 40 1
37 40 1
40 43 1
43 40 1
10 44 1
44 37 1
45 47 1
47 45 1
45 26 1
48 42 1
42 10 1
26 49 1
49 10 1
26 50 1
50 51 1
10 52 1
52 53 1
53 10 1
54 52 1
52 10 1
26 54 1
10 53 1
10 56 1
56 10 1
10 57 1
57 26 1
26 55 1
55 51 1
10 58 1
58 59 1
59 60 1
10 60 1
10 61 1
61 62 1
62 63 1
63 10 1
26 64 1
10 65 1
65 10 1
64 66 1
66 64 1
10 67 1
67 68 1
68 10 1
10 69 1
69 10 1
26 8 1
8 70 1
70 26 1
26 71 1
71 72 1
26 73 1
73 64 1
10 74 1
74 75 1
75 10 1
10 8 1
8 55 1
55 76 1
76 77 1
77 78 1
78 10 1
55 79 1
79 26 1
26 80 1
80 10 1
10 81 1
81 26 1
10 82 1
82 10 1
26 83 1
83 10 1
84 86 1
10 87 1
87 88 1
88 84 1
84 87 1
87 89 1
89 90 1
90 87 1
84 37 1
37 91 1
91 85 1
84 92 1
92 84 1
84 93 1
93 10 1
10 94 1
94 26 1
26 95 1
95 96 1
22 97 1
26 98 1
98 99 1
99 26 1
100 101 1
26 101 1
100 104 1
104 26 1
26 7 1
7 95 1
95 10 1
10 105 1
105 26 1
100 102 1
102 106 1
106 103 1
107 26 1
26 106 1
106 26 1
107 100 1
107 108 1
108 109 1
109 110 1
110 10 1
10 106 1
106 100 1
100 111 1
111 112 1
112 104 1
104 100 1
100 113 1
113 100 1
26 114 1
114 10 1
42 84 1
26 96 1
96 115 1
115 116 1
116 117 1
22 115 1
115 103 1
103 118 1
118 115 1
115 117 1
22 55 1
55 117 1
117 96 1
22 119 1
119 120 1
120 18 1
18 117 1
96 84 1
84 42 1
42 26 1
26 97 1
84 97 1
121 122 1
122 22 1
121 22 1
10 123 1
123 124 1
124 125 1
125 126 1
126 125 1
125 127 1
127 128 1
128 129 1
130 131 1
131 130 1
88 130 1
130 129 1
130 132 1
132 133 1
133 130 1
88 134 1
134 131 1
131 135 1
135 136 1
136 137 1
137 88 1
88 125 1
125 138 1
138 139 1
139 55 1
55 97 1
97 140 1
140 141 1
141 140 1
140 142 1
142 143 1
143 144 1
144 145 1
145 143 1
143 146 1
146 97 1
97 147 1
147 148 1
148 26 1
26 149 1
149 150 1
150 151 1
151 22 1
22 152 1
152 26 1
26 153 1
153 147 1
147 26 1
26 147 1
147 154 1
154 155 1
155 154 1
154 156 1
156 154 1
154 147 1
147 72 1
26 157 1
157 158 1
158 97 1
97 159 1
159 97 1
97 10 1
55 160 1
160 90 1
90 161 1
161 154 1
154 162 1
162 163 1
163 10 1
10 164 1
164 10 1
10 147 1
147 157 1
157 10 1
10 165 1
165 10 1
10 166 1
166 167 1
167 10 1
10 168 1
168 10 1
10 169 1
169 160 1
160 10 1
10 170 1
170 22 1
10 86 1
86 26 1
26 86 1
86 171 1
171 10 1
88 10 1
88 86 1
86 10 1
84 172 1
172 173 1
173 10 1
