5 4 80
4 5 75
5 7 64
5 9 64
7 5 63
9 5 61
40 5 35
10 9 32
9 10 30
5 40 30
59 7 20
7 59 18
32 5 11
7 46 11
13 5 10
5 32 10
9 7 10
46 7 10
6 8 9
30 5 9
7 9 8
5 10 7
5 13 7
21 6 7
8 6 7
28 5 7
6 21 7
4 6 6
10 5 6
5 11 6
5 28 6
51 5 6
5 53 6
59 5 6
52 6 6
6 4 5
5 8 5
7 6 5
6 31 5
31 6 5
5 30 5
6 52 5
53 5 5
5 59 5
64 6 5
8 5 4
22 9 4
9 6 4
8 7 4
5 33 4
40 30 4
5 31 4
31 5 4
4 9 4
7 48 4
6 54 4
4 40 4
48 46 4
46 48 4
31 52 4
62 7 4
7 75 4
9 22 3
24 9 3
2 5 3
11 5 3
6 7 3
33 5 3
37 9 3
4 30 3
30 40 3
7 8 3
52 5 3
54 6 3
6 40 3
48 7 3
40 4 3
52 31 3
7 62 3
6 51 3
6 64 3
75 7 3
11 7 2
7 12 2
12 5 2
13 7 2
5 19 2
5 20 2
20 5 2
5 21 2
9 23 2
9 13 2
11 9 2
11 12 2
9 24 2
30 4 2
25 5 2
9 35 2
35 36 2
36 37 2
9 37 2
4 7 2
7 10 2
23 9 2
5 43 2
5 22 2
22 5 2
48 49 2
7 51 2
5 2 2
53 6 2
46 30 2
30 22 2
22 46 2
49 43 2
5 57 2
8 59 2
9 40 2
5 52 2
40 6 2
49 8 2
5 51 2
65 8 2
8 65 2
5 64 2
21 5 2
7 2 2
1 2 1
2 3 1
3 4 1
7 4 1
7 11 1
12 7 1
7 14 1
14 15 1
15 16 1
16 17 1
17 7 1
10 18 1
18 10 1
19 5 1
19 20 1
20 19 1
19 9 1
6 9 1
4 22 1
23 10 1
10 24 1
9 2 1
11 13 1
9 4 1
12 13 1
13 11 1
5 12 1
12 9 1
9 11 1
5 25 1
25 6 1
6 26 1
26 5 1
9 27 1
27 28 1
4 13 1
9 29 1
29 9 1
9 30 1
33 7 1
6 34 1
34 6 1
6 25 1
37 36 1
36 38 1
38 9 1
9 39 1
39 36 1
36 39 1
39 9 1
9 36 1
36 5 1
10 23 1
5 41 1
41 42 1
42 32 1
43 5 1
43 9 1
5 6 1
8 44 1
44 5 1
5 45 1
45 2 1
2 46 1
7 47 1
47 7 1
49 50 1
50 46 1
46 25 1
25 46 1
46 8 1
2 6 1
6 53 1
54 5 1
5 54 1
54 46 1
30 55 1
55 30 1
22 30 1
46 22 1
46 56 1
56 7 1
7 43 1
43 49 1
43 56 1
56 43 1
43 7 1
7 56 1
56 49 1
43 46 1
46 4 1
57 5 1
57 30 1
30 58 1
58 30 1
30 7 1
5 60 1
60 5 1
40 2 1
40 7 1
49 7 1
30 25 1
6 50 1
50 49 1
8 49 1
8 46 1
46 34 1
34 48 1
46 61 1
61 5 1
2 40 1
7 63 1
63 40 1
40 64 1
64 52 1
52 51 1
51 63 1
63 59 1
7 65 1
65 7 1
7 32 1
32 13 1
7 13 1
13 59 1
59 51 1
51 40 1
51 66 1
66 4 1
30 59 1
59 30 1
30 62 1
62 59 1
59 67 1
67 59 1
59 4 1
4 51 1
51 7 1
9 59 1
59 40 1
9 68 1
68 69 1
69 5 1
6 70 1
70 59 1
7 69 1
69 62 1
59 8 1
8 71 1
71 8 1
2 72 1
72 7 1
5 73 1
73 9 1
9 12 1
12 11 1
5 74 1
74 40 1
40 73 1
73 7 1
75 40 1
7 30 1
5 76 1
76 31 1
7 52 1
5 77 1
77 9 1
6 30 1
8 4 1
6 5 1
