10 8 33
8 10 30
3 8 27
8 3 25
21 8 24
8 21 24
3 10 20
10 3 17
3 5 16
5 3 15
7 8 15
8 7 15
8 20 13
20 8 13
10 11 12
11 10 11
21 3 8
14 3 6
3 14 6
10 18 6
3 21 6
30 3 6
3 4 5
18 10 5
4 3 4
8 22 4
3 30 4
10 30 4
22 3 3
16 3 3
2 3 2
5 16 2
16 15 2
8 15 2
22 8 2
3 16 2
7 10 2
30 10 2
1 2 1
3 2 1
4 5 1
5 6 1
6 3 1
5 2 1
2 7 1
8 2 1
2 9 1
9 10 1
11 3 1
3 12 1
12 13 1
13 14 1
14 5 1
5 15 1
15 16 1
16 5 1
15 5 1
15 10 1
10 17 1
17 10 1
18 19 1
19 10 1
15 8 1
15 3 1
3 22 1
8 23 1
23 10 1
8 24 1
24 3 1
8 25 1
25 26 1
26 16 1
3 26 1
26 8 1
10 27 1
27 21 1
21 7 1
10 28 1
28 11 1
11 9 1
9 28 1
28 10 1
3 29 1
29 30 1
30 8 1
10 21 1
3 31 1
31 21 1
3 32 1
