3 4 66
4 3 65
12 11 11
4 12 11
11 12 10
11 4 9
12 4 8
4 11 8
17 25 8
25 17 7
38 39 5
6 4 4
16 17 4
4 17 4
39 38 4
45 46 4
4 6 3
4 15 3
17 16 3
17 4 3
17 23 3
23 4 3
23 17 3
22 19 3
31 32 3
46 45 3
53 4 3
4 5 2
10 11 2
15 4 2
18 19 2
19 18 2
18 20 2
20 18 2
16 24 2
24 16 2
17 10 2
4 23 2
10 24 2
24 10 2
10 23 2
19 22 2
30 31 2
32 31 2
7 31 2
10 3 2
37 38 2
38 37 2
39 40 2
22 12 2
12 22 2
46 44 2
26 50 2
50 51 2
52 3 2
51 50 2
4 53 2
1 2 1
2 3 1
5 4 1
5 6 1
4 7 1
7 8 1
8 9 1
9 10 1
12 10 1
11 10 1
10 12 1
12 13 1
13 12 1
12 14 1
14 3 1
15 10 1
10 16 1
16 18 1
18 21 1
21 18 1
18 22 1
22 23 1
23 22 1
22 16 1
10 4 1
25 21 1
21 23 1
23 10 1
23 24 1
24 26 1
26 27 1
27 22 1
19 17 1
4 28 1
28 29 1
29 3 1
3 30 1
31 30 1
31 33 1
33 31 1
32 7 1
31 7 1
31 10 1
10 34 1
34 35 1
35 36 1
36 10 1
3 37 1
37 39 1
40 39 1
40 38 1
39 3 1
3 10 1
10 41 1
41 10 1
4 22 1
22 42 1
42 12 1
12 42 1
42 22 1
22 43 1
43 10 1
10 44 1
44 45 1
44 46 1
44 4 1
4 47 1
47 4 1
12 48 1
48 4 1
11 3 1
3 49 1
49 26 1
50 26 1
50 4 1
3 50 1
51 52 1
3 12 1
12 52 1
3 6 1
6 3 1
3 51 1
50 10 1
10 50 1
50 3 1
3 53 1
