14 3 94
3 12 91
3 14 87
12 3 87
8 12 69
12 8 69
3 8 42
8 3 38
1 3 36
3 1 36
4 1 29
1 4 26
14 1 16
1 14 16
3 21 13
21 3 13
4 3 12
3 4 11
5 4 7
31 1 7
1 2 6
2 1 6
1 15 6
3 22 6
22 3 6
1 31 6
1 5 5
4 5 5
15 1 5
8 17 5
8 23 5
30 8 5
5 1 4
17 8 4
23 8 4
12 14 4
8 27 4
12 30 4
9 8 3
8 9 3
5 3 3
15 3 3
3 15 3
19 3 3
8 14 3
27 8 3
28 8 3
8 28 3
30 12 3
8 30 3
3 33 3
33 3 3
3 5 2
1 8 2
8 4 2
1 13 2
3 18 2
3 19 2
18 8 2
8 21 2
21 8 2
27 3 2
3 35 2
1 6 1
6 1 1
1 7 1
7 8 1
8 1 1
3 9 1
9 5 1
8 10 1
10 8 1
3 11 1
11 12 1
12 11 1
11 1 1
13 14 1
13 1 1
15 4 1
4 14 1
14 4 1
3 16 1
16 15 1
15 8 1
17 3 1
18 19 1
8 18 1
8 20 1
20 3 1
8 5 1
8 22 1
22 8 1
12 24 1
24 12 1
4 12 1
12 25 1
25 3 1
1 26 1
26 1 1
3 2 1
2 3 1
3 27 1
3 28 1
28 12 1
12 29 1
29 30 1
8 31 1
1 32 1
32 1 1
1 23 1
23 3 1
14 8 1
23 1 1
1 34 1
34 3 1
35 3 1
35 1 1
1 12 1
