7 9 53
9 7 49
7 24 21
24 7 20
9 18 16
24 14 15
14 24 14
33 7 13
5 7 12
18 7 12
7 33 12
20 18 11
18 9 11
18 20 10
7 18 10
7 5 8
7 14 8
14 7 6
7 12 5
24 9 5
9 22 5
11 9 4
9 11 4
9 13 4
16 9 4
18 22 4
7 25 4
25 7 4
20 13 4
9 24 4
7 20 4
20 7 4
22 9 4
13 9 3
14 9 3
9 16 3
9 17 3
17 9 3
7 22 3
22 7 3
7 26 3
26 7 3
20 14 3
14 20 3
13 20 3
3 4 2
4 3 2
9 10 2
12 7 2
9 14 2
14 13 2
13 7 2
17 7 2
7 17 2
22 20 2
22 23 2
26 9 2
9 26 2
22 18 2
22 32 2
12 5 2
1 2 1
2 3 1
3 5 1
5 4 1
3 6 1
6 4 1
4 6 1
6 3 1
4 5 1
7 8 1
8 7 1
10 9 1
10 11 1
11 7 1
12 9 1
9 15 1
15 16 1
18 19 1
19 18 1
18 21 1
21 18 1
23 20 1
20 23 1
23 7 1
20 19 1
19 22 1
26 27 1
27 9 1
9 27 1
27 26 1
7 28 1
28 29 1
29 7 1
7 29 1
29 20 1
13 14 1
13 24 1
14 30 1
30 5 1
18 24 1
23 22 1
9 31 1
31 22 1
18 31 1
31 9 1
32 22 1
32 9 1
22 33 1
24 5 1
