2 78 29
78 2 29
2 33 28
33 2 27
21 2 8
2 21 8
2 36 8
36 2 7
2 74 6
74 2 6
78 77 5
2 83 4
77 78 4
2 5 3
6 2 3
22 2 3
46 2 3
51 2 3
2 51 3
2 62 3
2 13 3
13 2 3
5 2 2
2 6 2
2 11 2
11 2 2
16 2 2
2 22 2
2 34 2
34 2 2
2 47 2
2 53 2
56 2 2
2 60 2
2 55 2
74 75 2
75 2 2
74 77 2
77 74 2
65 2 2
2 65 2
83 2 2
2 64 2
64 2 2
62 2 2
78 74 2
118 2 2
120 2 2
78 133 2
2 146 2
146 2 2
78 22 2
1 2 1
2 3 1
3 2 1
2 4 1
4 2 1
2 7 1
7 2 1
2 8 1
8 9 1
9 2 1
5 10 1
10 2 1
2 12 1
12 13 1
13 14 1
14 15 1
15 16 1
2 17 1
17 2 1
2 18 1
18 19 1
19 2 1
2 20 1
20 21 1
21 22 1
22 23 1
23 24 1
24 25 1
25 22 1
22 26 1
26 2 1
2 27 1
27 28 1
28 2 1
2 28 1
28 29 1
29 30 1
30 2 1
2 30 1
30 31 1
31 32 1
32 2 1
33 6 1
34 35 1
35 34 1
36 37 1
37 38 1
38 2 1
2 39 1
39 2 1
2 40 1
40 2 1
2 41 1
41 2 1
2 42 1
42 2 1
2 43 1
43 2 1
2 44 1
44 45 1
45 46 1
47 48 1
48 49 1
49 2 1
47 50 1
50 51 1
51 52 1
52 2 1
53 2 1
2 54 1
54 55 1
55 56 1
2 57 1
57 2 1
53 58 1
58 59 1
59 36 1
60 61 1
61 20 1
20 2 1
62 63 1
63 2 1
55 36 1
36 64 1
64 65 1
65 56 1
2 66 1
66 67 1
67 2 1
2 68 1
68 2 1
2 69 1
69 36 1
36 70 1
70 2 1
2 71 1
71 2 1
2 72 1
72 2 1
2 73 1
73 2 1
2 76 1
76 74 1
78 79 1
79 77 1
77 80 1
80 65 1
2 81 1
81 2 1
2 82 1
82 2 1
2 84 1
84 2 1
2 56 1
56 85 1
85 2 1
2 46 1
2 86 1
86 2 1
65 87 1
87 2 1
2 88 1
88 89 1
89 2 1
2 90 1
90 2 1
2 91 1
91 78 1
77 2 1
2 92 1
92 2 1
2 93 1
93 94 1
94 2 1
2 95 1
95 2 1
2 96 1
96 2 1
2 97 1
97 2 1
2 98 1
98 2 1
2 99 1
99 2 1
2 100 1
100 83 1
83 101 1
101 2 1
2 102 1
102 2 1
2 103 1
103 2 1
2 104 1
104 105 1
105 2 1
2 106 1
106 107 1
107 2 1
2 108 1
108 109 1
109 110 1
110 33 1
2 111 1
111 2 1
2 112 1
112 78 1
74 78 1
74 113 1
113 114 1
114 115 1
115 77 1
77 116 1
116 2 1
2 117 1
117 118 1
2 119 1
119 120 1
2 121 1
121 2 1
2 122 1
122 2 1
60 2 1
2 123 1
123 78 1
36 124 1
124 125 1
125 2 1
36 126 1
126 2 1
2 127 1
127 128 1
128 78 1
78 6 1
6 129 1
129 78 1
2 130 1
130 78 1
2 16 1
2 131 1
131 2 1
2 132 1
132 78 1
133 5 1
5 133 1
133 22 1
2 134 1
134 2 1
83 135 1
135 2 1
83 46 1
2 136 1
136 2 1
2 137 1
137 2 1
33 15 1
15 138 1
138 2 1
2 139 1
139 2 1
2 140 1
140 2 1
2 141 1
141 74 1
2 142 1
142 143 1
143 2 1
2 120 1
2 144 1
144 2 1
2 145 1
145 118 1
133 2 1
2 147 1
147 2 1
2 148 1
148 2 1
2 149 1
149 150 1
150 2 1
2 118 1
118 80 1
80 2 1
55 2 1
78 138 1
138 151 1
151 2 1
2 152 1
152 36 1
2 153 1
153 133 1
133 33 1
33 154 1
154 33 1
33 78 1
78 155 1
155 78 1
22 78 1
22 156 1
156 157 1
