21 9 62
9 21 61
9 27 16
27 9 15
9 2 13
2 9 13
33 9 12
13 9 8
9 13 8
9 33 8
24 9 6
28 9 6
9 28 6
7 9 5
9 24 5
7 8 4
8 7 4
9 7 4
34 33 4
12 2 3
21 24 3
24 21 3
21 33 3
9 34 3
2 11 2
2 12 2
11 13 2
21 36 2
36 21 2
33 21 2
1 2 1
2 1 1
1 3 1
3 4 1
4 5 1
5 3 1
3 6 1
6 7 1
9 8 1
8 9 1
9 10 1
10 9 1
9 11 1
11 2 1
11 12 1
13 11 1
13 14 1
14 9 1
9 15 1
15 16 1
16 17 1
17 18 1
18 19 1
19 20 1
20 21 1
9 22 1
22 9 1
9 23 1
23 21 1
21 25 1
25 24 1
24 26 1
26 24 1
27 28 1
28 29 1
29 30 1
30 31 1
31 32 1
32 21 1
33 34 1
34 35 1
35 33 1
33 35 1
35 34 1
