16 4 36
4 16 31
10 9 18
9 10 16
5 6 11
6 5 9
4 20 7
17 10 6
20 16 6
3 4 5
4 3 5
10 17 5
20 4 5
7 8 4
3 12 4
19 18 4
16 20 4
9 14 4
8 7 3
13 16 3
18 19 3
12 3 3
14 9 3
14 10 3
8 3 2
16 13 2
18 16 2
8 21 2
3 22 2
22 3 2
12 22 2
22 12 2
10 14 2
1 2 1
2 3 1
3 5 1
6 3 1
3 7 1
3 9 1
10 11 1
11 12 1
12 8 1
7 9 1
9 13 1
13 6 1
6 14 1
14 12 1
12 15 1
15 13 1
16 17 1
10 3 1
3 8 1
12 16 1
4 6 1
6 10 1
9 15 1
15 16 1
16 15 1
15 4 1
4 11 1
11 16 1
4 18 1
16 8 1
8 4 1
4 10 1
10 12 1
12 4 1
4 19 1
4 8 1
8 16 1
16 9 1
9 16 1
4 7 1
21 8 1
21 3 1
3 23 1
23 3 1
3 10 1
9 5 1
6 4 1
