5 4 31
4 5 31
2 3 14
3 2 12
6 4 11
4 6 11
12 13 9
7 13 8
13 7 8
11 4 7
13 12 7
3 5 6
4 11 6
8 4 5
7 12 5
4 2 4
5 3 4
9 8 4
12 7 4
6 5 4
8 9 3
8 5 3
5 6 3
17 21 3
2 8 3
4 8 3
2 6 2
6 7 2
7 6 2
10 3 2
3 10 2
10 4 2
9 15 2
15 9 2
5 8 2
5 17 2
18 19 2
17 6 2
6 17 2
21 6 2
8 2 2
3 8 2
1 2 1
2 4 1
7 8 1
8 7 1
6 9 1
2 10 1
10 2 1
2 11 1
4 10 1
3 11 1
11 3 1
4 12 1
13 14 1
14 9 1
9 14 1
14 7 1
13 5 1
5 10 1
11 5 1
5 11 1
5 16 1
16 6 1
17 18 1
19 2 1
2 18 1
18 5 1
5 18 1
19 7 1
7 5 1
5 20 1
20 17 1
6 19 1
19 21 1
21 17 1
21 2 1
6 22 1
22 5 1
6 2 1
5 13 1
13 6 1
6 3 1
8 3 1
5 7 1
