5 2 15
2 5 9
24 5 9
24 50 5
11 2 4
5 16 4
5 24 4
50 24 4
26 29 3
30 24 3
2 21 3
21 2 3
11 10 2
2 10 2
10 2 2
5 11 2
24 16 2
2 11 2
26 10 2
11 5 2
16 26 2
26 50 2
16 50 2
29 24 2
60 24 2
51 2 2
29 10 2
29 11 2
11 29 2
24 30 2
77 16 2
16 77 2
1 2 1
2 3 1
3 2 1
2 4 1
4 5 1
2 6 1
6 5 1
5 7 1
7 8 1
8 9 1
9 10 1
10 11 1
10 12 1
12 13 1
13 11 1
2 14 1
14 15 1
15 16 1
16 5 1
16 17 1
17 18 1
18 19 1
19 20 1
20 21 1
21 5 1
5 20 1
20 5 1
10 22 1
22 10 1
2 23 1
23 24 1
16 2 1
2 24 1
16 25 1
25 26 1
26 24 1
24 27 1
27 28 1
28 5 1
5 26 1
29 30 1
30 31 1
31 10 1
10 32 1
32 11 1
2 33 1
33 2 1
2 34 1
34 2 1
2 35 1
35 11 1
11 36 1
36 37 1
37 5 1
2 38 1
38 39 1
39 5 1
5 35 1
35 10 1
10 40 1
40 26 1
10 41 1
41 24 1
16 24 1
5 10 1
10 42 1
42 2 1
11 43 1
43 44 1
44 45 1
45 30 1
30 2 1
2 46 1
46 11 1
10 24 1
5 47 1
47 48 1
48 5 1
2 49 1
49 5 1
50 5 1
24 51 1
51 24 1
50 16 1
50 52 1
52 24 1
50 53 1
53 50 1
50 26 1
24 54 1
54 24 1
10 55 1
55 56 1
56 10 1
10 57 1
57 58 1
58 24 1
24 26 1
29 59 1
59 60 1
60 61 1
61 24 1
24 62 1
62 63 1
63 2 1
2 60 1
24 64 1
64 24 1
24 65 1
65 5 1
24 66 1
66 60 1
24 67 1
67 68 1
68 69 1
69 24 1
24 70 1
70 24 1
24 71 1
71 72 1
72 73 1
73 74 1
74 75 1
75 64 1
64 2 1
2 76 1
76 2 1
2 77 1
77 78 1
78 2 1
2 26 1
50 77 1
77 11 1
11 30 1
24 79 1
79 2 1
2 80 1
80 5 1
2 81 1
81 5 1
21 82 1
82 83 1
83 84 1
84 21 1
2 85 1
85 5 1
5 79 1
79 86 1
86 87 1
87 51 1
2 88 1
88 2 1
5 89 1
89 5 1
2 90 1
90 24 1
24 91 1
91 24 1
24 56 1
56 26 1
26 56 1
56 29 1
10 29 1
10 50 1
50 11 1
5 92 1
92 5 1
5 93 1
93 5 1
5 94 1
94 5 1
2 95 1
95 24 1
30 77 1
77 2 1
2 96 1
96 29 1
24 28 1
28 97 1
97 24 1
24 98 1
98 99 1
99 100 1
100 101 1
101 24 1
5 102 1
102 103 1
103 101 1
101 104 1
104 105 1
105 101 1
101 106 1
106 51 1
2 107 1
107 108 1
108 101 1
101 99 1
99 101 1
101 109 1
109 110 1
110 111 1
111 112 1
112 113 1
113 2 1
5 50 1
24 60 1
60 114 1
114 50 1
50 30 1
30 54 1
54 30 1
24 100 1
100 24 1
5 64 1
64 115 1
115 116 1
116 2 1
2 117 1
117 2 1
2 118 1
118 119 1
119 56 1
56 120 1
120 71 1
71 121 1
121 122 1
122 123 1
123 24 1
24 72 1
72 2 1
2 72 1
72 124 1
124 125 1
125 2 1
2 126 1
126 127 1
127 24 1
24 128 1
128 129 1
129 60 1
60 10 1
10 130 1
130 72 1
72 112 1
112 24 1
5 131 1
131 132 1
132 29 1
29 26 1
26 88 1
88 16 1
50 10 1
10 16 1
16 56 1
56 5 1
5 29 1
29 5 1
5 133 1
133 35 1
35 5 1
2 134 1
134 135 1
