11 6 26
6 11 24
6 13 12
6 37 11
37 6 11
13 6 10
6 53 10
6 55 10
55 6 10
53 6 9
6 32 6
32 6 6
6 40 6
6 46 6
46 6 6
29 6 5
40 6 5
3 5 4
6 25 4
6 29 4
53 54 4
58 6 4
6 58 4
5 3 3
3 6 3
6 3 3
13 14 3
16 6 3
13 19 3
25 6 3
6 30 3
30 6 3
31 6 3
6 31 3
13 11 3
6 33 3
33 6 3
6 45 3
45 6 3
48 6 3
6 48 3
54 53 3
2 3 2
3 4 2
5 6 2
14 6 2
11 16 2
6 14 2
14 11 2
18 13 2
19 6 2
6 9 2
24 6 2
6 27 2
32 33 2
6 34 2
35 6 2
43 6 2
50 14 2
14 13 2
6 60 2
1 2 1
4 5 1
6 4 1
4 6 1
6 7 1
7 6 1
6 2 1
4 3 1
5 8 1
8 5 1
6 8 1
8 6 1
6 5 1
5 9 1
9 3 1
6 10 1
10 6 1
3 11 1
6 12 1
12 13 1
13 15 1
15 16 1
6 17 1
17 12 1
12 11 1
16 11 1
11 13 1
13 16 1
6 18 1
19 20 1
20 19 1
6 21 1
21 13 1
19 21 1
21 6 1
6 19 1
19 13 1
6 22 1
22 11 1
9 6 1
9 23 1
23 24 1
6 24 1
25 26 1
26 6 1
27 28 1
28 27 1
27 6 1
27 29 1
11 31 1
31 13 1
33 25 1
34 6 1
34 35 1
6 36 1
36 6 1
6 35 1
6 38 1
38 6 1
6 39 1
39 6 1
40 41 1
41 42 1
42 6 1
6 43 1
6 44 1
44 43 1
33 32 1
6 41 1
41 6 1
6 47 1
47 48 1
48 47 1
47 6 1
11 49 1
49 11 1
11 50 1
14 51 1
51 13 1
13 52 1
52 6 1
53 46 1
46 53 1
54 6 1
6 56 1
56 32 1
6 57 1
57 55 1
55 58 1
58 59 1
59 6 1
60 6 1
60 61 1
61 6 1
6 62 1
62 63 1
63 6 1
25 13 1
13 50 1
11 18 1
11 64 1
