11 6 26
6 11 24
6 13 12
6 37 11
37 6 11
13 6 10
6 52 10
6 54 10
54 6 10
52 6 9
6 32 6
32 6 6
6 39 6
6 45 6
45 6 6
29 6 5
39 6 5
3 5 4
6 25 4
6 29 4
52 53 4
57 6 4
6 57 4
5 3 3
3 6 3
6 3 3
13 14 3
16 6 3
13 19 3
25 6 3
6 30 3
30 6 3
31 6 3
6 31 3
13 11 3
6 33 3
33 6 3
6 44 3
44 6 3
47 6 3
6 47 3
53 52 3
2 3 2
3 4 2
5 6 2
14 6 2
11 16 2
6 14 2
14 11 2
18 13 2
19 6 2
6 9 2
24 6 2
6 27 2
32 33 2
6 34 2
35 6 2
6 42 2
42 6 2
49 14 2
14 13 2
6 59 2
1 2 1
4 5 1
6 4 1
4 6 1
6 7 1
7 6 1
6 2 1
4 3 1
5 8 1
8 5 1
6 8 1
8 6 1
6 5 1
5 9 1
9 3 1
6 10 1
10 6 1
3 11 1
6 12 1
12 13 1
13 15 1
15 16 1
6 17 1
17 12 1
12 11 1
16 11 1
11 13 1
13 16 1
6 18 1
19 20 1
20 19 1
6 21 1
21 13 1
19 21 1
21 6 1
6 19 1
19 13 1
6 22 1
22 11 1
9 6 1
9 23 1
23 24 1
6 24 1
25 26 1
26 6 1
27 28 1
28 27 1
27 6 1
27 29 1
11 31 1
31 13 1
33 25 1
34 6 1
34 35 1
6 36 1
36 6 1
6 35 1
6 38 1
38 6 1
39 40 1
40 41 1
41 6 1
6 43 1
43 6 1
33 32 1
6 40 1
40 6 1
6 46 1
46 47 1
47 46 1
46 6 1
11 48 1
48 11 1
11 49 1
14 50 1
50 13 1
13 51 1
51 6 1
52 45 1
45 52 1
53 6 1
6 55 1
55 32 1
6 56 1
56 54 1
54 57 1
57 58 1
58 6 1
59 6 1
59 60 1
60 6 1
6 61 1
61 6 1
25 13 1
13 49 1
11 18 1
11 62 1
