15 8 94
8 15 91
8 9 53
9 8 53
8 10 38
10 8 33
5 1 30
15 9 30
1 5 28
9 15 28
10 15 25
22 8 24
8 22 24
8 25 23
15 10 21
25 8 21
15 16 17
16 15 17
15 18 17
18 15 17
26 8 13
8 26 12
13 8 11
15 12 11
8 12 10
12 8 10
8 13 10
12 15 9
25 9 9
9 25 9
8 18 8
22 9 8
25 15 8
10 12 7
8 11 7
26 27 7
27 8 7
9 22 7
13 10 6
11 8 6
18 8 6
7 22 6
15 25 6
7 8 5
8 1 5
10 13 5
12 10 5
22 7 5
24 15 5
27 26 5
8 27 5
38 25 5
39 40 5
40 41 5
59 55 5
55 59 5
8 7 4
1 8 4
10 20 4
15 24 4
8 16 4
16 8 4
9 16 4
12 14 4
25 38 4
60 9 4
9 60 4
6 7 3
6 8 3
8 6 3
10 11 3
11 12 3
12 13 3
18 1 3
20 21 3
21 20 3
20 10 3
20 8 3
1 9 3
16 9 3
22 16 3
16 22 3
10 22 3
22 10 3
11 15 3
57 58 3
1 2 2
1 6 2
1 10 2
12 11 2
10 14 2
14 10 2
9 20 2
8 20 2
1 15 2
9 1 2
15 1 2
14 15 2
14 12 2
13 12 2
14 8 2
38 43 2
38 45 2
41 38 2
15 11 2
54 55 2
55 56 2
56 55 2
58 57 2
2 1 1
2 3 1
3 2 1
2 4 1
4 5 1
7 6 1
7 1 1
11 10 1
10 17 1
17 12 1
13 11 1
1 18 1
1 19 1
19 10 1
10 18 1
18 10 1
20 9 1
10 9 1
20 18 1
18 9 1
15 7 1
8 23 1
23 9 1
9 23 1
23 8 1
9 10 1
10 24 1
15 26 1
8 28 1
28 27 1
27 28 1
28 26 1
25 22 1
9 29 1
29 8 1
22 25 1
25 30 1
30 8 1
8 30 1
30 9 1
16 10 1
15 13 1
12 31 1
31 10 1
11 14 1
11 13 1
8 14 1
12 24 1
24 8 1
12 1 1
9 32 1
32 1 1
1 33 1
33 34 1
34 35 1
35 36 1
36 33 1
33 37 1
37 25 1
38 39 1
41 42 1
42 38 1
43 39 1
41 44 1
44 43 1
43 44 1
44 38 1
25 45 1
45 38 1
45 46 1
46 39 1
38 47 1
47 38 1
43 25 1
38 48 1
48 38 1
45 49 1
49 39 1
41 25 1
25 50 1
50 38 1
25 39 1
9 26 1
8 51 1
51 52 1
52 53 1
53 54 1
55 54 1
55 57 1
58 15 1
15 59 1
59 8 1
8 60 1
60 8 1
9 5 1
1 61 1
61 1 1
1 62 1
62 1 1
