3 5 35
5 3 32
23 3 29
3 23 29
13 3 27
3 13 24
46 29 15
5 60 14
60 5 14
29 46 12
4 3 10
21 3 10
3 4 8
3 21 8
28 29 8
5 6 7
6 5 7
5 13 7
29 28 7
6 4 6
4 6 6
10 3 6
13 5 6
29 31 6
3 10 5
8 3 5
23 25 5
3 8 5
29 30 5
31 29 5
26 43 5
60 29 5
81 60 5
60 81 5
3 7 4
7 8 4
9 5 4
19 3 4
20 3 4
3 20 4
30 29 4
29 3 4
43 26 4
29 60 4
6 3 3
8 7 3
5 9 3
3 19 3
25 26 3
26 23 3
3 29 3
7 3 3
23 43 3
43 23 3
13 60 3
43 3 3
3 6 2
3 18 2
23 7 2
7 23 2
27 28 2
3 11 2
29 37 2
42 3 2
3 42 2
23 29 2
13 23 2
46 5 2
29 13 2
65 60 2
28 46 2
60 13 2
3 43 2
3 26 2
6 29 2
1 2 1
2 3 1
8 5 1
5 11 1
11 10 1
5 12 1
12 5 1
13 14 1
14 9 1
9 6 1
13 15 1
15 6 1
6 9 1
5 16 1
16 3 1
5 17 1
17 8 1
18 3 1
18 20 1
3 22 1
22 23 1
23 24 1
24 23 1
25 19 1
8 13 1
13 27 1
28 27 1
30 31 1
31 13 1
28 8 1
8 29 1
3 32 1
32 28 1
28 5 1
3 33 1
33 13 1
3 34 1
34 3 1
3 35 1
35 3 1
11 3 1
11 36 1
36 3 1
5 4 1
37 29 1
37 38 1
38 39 1
39 29 1
29 40 1
40 29 1
29 23 1
23 41 1
41 23 1
23 42 1
42 23 1
29 44 1
44 45 1
45 46 1
5 47 1
47 13 1
23 21 1
3 48 1
48 29 1
29 49 1
49 6 1
6 46 1
5 50 1
50 3 1
3 51 1
51 52 1
52 51 1
51 5 1
3 53 1
53 54 1
54 3 1
3 46 1
29 50 1
50 4 1
4 55 1
55 3 1
3 56 1
56 57 1
57 56 1
56 58 1
58 59 1
59 58 1
58 5 1
21 13 1
13 21 1
3 61 1
61 21 1
20 62 1
62 63 1
63 64 1
64 4 1
4 46 1
3 65 1
65 31 1
31 66 1
66 29 1
29 65 1
65 29 1
31 65 1
60 65 1
60 28 1
28 67 1
67 29 1
29 68 1
68 46 1
46 69 1
69 28 1
46 28 1
29 70 1
70 29 1
5 71 1
71 13 1
13 28 1
29 72 1
72 60 1
29 73 1
73 13 1
25 3 1
26 3 1
3 74 1
74 23 1
23 73 1
73 6 1
29 6 1
5 29 1
29 21 1
21 75 1
75 21 1
21 41 1
41 29 1
29 76 1
76 23 1
3 31 1
31 3 1
3 77 1
77 13 1
13 4 1
5 78 1
78 79 1
79 80 1
80 81 1
81 82 1
82 81 1
81 83 1
83 13 1
60 3 1
