4 19 36
19 4 27
7 4 24
7 6 20
14 24 19
24 14 19
8 7 18
6 4 18
6 7 17
7 8 16
4 7 16
6 8 16
4 24 16
4 6 15
8 4 13
24 4 13
7 10 12
24 21 12
8 6 11
21 24 11
13 24 11
10 7 10
19 6 10
19 7 10
6 19 9
10 8 8
24 13 8
7 19 7
4 8 6
13 7 6
7 13 6
14 4 6
19 18 6
18 6 6
4 14 6
18 19 6
6 18 6
10 6 5
4 10 5
18 7 5
18 14 5
21 14 5
19 8 5
35 36 5
4 9 4
9 7 4
8 10 4
4 18 4
14 21 4
8 18 4
14 23 4
19 14 4
19 13 4
36 35 4
6 10 3
14 18 3
7 22 3
24 7 3
24 19 3
24 36 3
19 36 3
13 19 3
14 19 3
21 4 3
4 21 3
7 9 2
9 4 2
10 4 2
13 14 2
14 6 2
7 18 2
7 14 2
18 20 2
20 18 2
14 8 2
8 14 2
23 14 2
23 21 2
22 7 2
24 18 2
8 24 2
8 19 2
19 24 2
24 6 2
21 35 2
19 21 2
21 13 2
36 13 2
36 4 2
36 19 2
36 24 2
21 45 2
45 21 2
4 45 2
1 2 1
2 3 1
3 4 1
4 5 1
5 4 1
7 11 1
11 10 1
4 12 1
12 13 1
6 15 1
15 14 1
4 16 1
16 17 1
17 8 1
19 20 1
20 4 1
14 7 1
6 14 1
18 21 1
21 7 1
22 19 1
6 22 1
22 8 1
14 22 1
22 6 1
18 8 1
24 8 1
14 25 1
25 6 1
18 26 1
26 27 1
27 24 1
18 28 1
28 7 1
6 29 1
29 30 1
30 24 1
18 4 1
24 31 1
31 24 1
14 13 1
24 32 1
32 24 1
24 33 1
33 13 1
8 34 1
34 7 1
35 7 1
13 21 1
13 37 1
37 24 1
7 38 1
38 19 1
4 36 1
14 39 1
39 24 1
13 40 1
40 4 1
24 35 1
35 24 1
35 21 1
21 36 1
36 41 1
41 42 1
42 43 1
43 4 1
4 35 1
4 44 1
44 4 1
45 4 1
21 19 1
45 19 1
14 46 1
46 4 1
