15 24 18
15 3 16
3 15 14
24 15 13
40 15 12
15 40 12
15 27 11
37 15 11
15 37 11
27 15 9
52 15 7
33 15 6
15 52 6
15 33 5
15 7 4
15 83 4
15 102 4
83 15 4
21 15 3
3 40 3
7 15 3
15 71 3
102 15 3
113 15 3
27 102 3
27 37 3
33 52 2
71 15 2
75 15 2
84 85 2
108 15 2
15 113 2
15 114 2
114 15 2
121 15 2
102 27 2
37 24 2
24 27 2
145 15 2
7 83 2
83 7 2
113 145 2
1 2 1
2 3 1
3 4 1
4 3 1
3 5 1
5 6 1
6 7 1
7 3 1
3 6 1
6 8 1
8 9 1
9 6 1
6 10 1
10 6 1
6 3 1
3 11 1
11 12 1
12 3 1
3 13 1
13 14 1
14 15 1
15 16 1
16 17 1
17 15 1
15 18 1
18 15 1
15 19 1
19 20 1
20 21 1
21 22 1
22 21 1
15 21 1
21 23 1
23 21 1
15 25 1
25 15 1
15 26 1
26 27 1
27 28 1
28 29 1
29 30 1
30 27 1
27 31 1
31 27 1
27 32 1
32 15 1
15 34 1
34 33 1
33 35 1
35 33 1
33 26 1
26 36 1
36 37 1
37 38 1
38 39 1
39 40 1
40 41 1
41 40 1
15 42 1
42 15 1
40 43 1
43 3 1
40 44 1
44 15 1
3 45 1
45 15 1
40 3 1
40 9 1
9 40 1
15 46 1
46 15 1
24 33 1
33 47 1
47 15 1
15 48 1
48 33 1
33 49 1
49 15 1
15 50 1
50 51 1
51 15 1
27 52 1
52 33 1
15 53 1
53 54 1
54 52 1
52 55 1
55 33 1
52 56 1
56 57 1
57 3 1
52 3 1
3 52 1
52 58 1
58 52 1
15 59 1
59 60 1
60 3 1
3 61 1
61 15 1
3 10 1
10 3 1
3 7 1
15 62 1
62 15 1
15 63 1
63 21 1
21 64 1
64 21 1
15 65 1
65 66 1
66 40 1
40 67 1
67 40 1
40 68 1
68 15 1
15 69 1
69 15 1
40 70 1
70 71 1
15 72 1
72 7 1
7 73 1
73 74 1
74 75 1
75 7 1
7 76 1
76 74 1
74 57 1
57 72 1
72 77 1
77 78 1
78 79 1
79 57 1
57 15 1
15 80 1
80 15 1
15 81 1
81 82 1
82 75 1
83 84 1
85 86 1
86 85 1
85 15 1
15 85 1
85 87 1
87 88 1
88 85 1
85 84 1
85 89 1
89 84 1
84 90 1
90 91 1
91 33 1
33 75 1
15 92 1
92 90 1
90 33 1
15 93 1
93 94 1
94 95 1
95 15 1
15 96 1
96 97 1
97 15 1
71 74 1
74 15 1
15 98 1
98 99 1
99 15 1
15 56 1
56 100 1
100 101 1
101 15 1
102 103 1
103 15 1
15 104 1
104 105 1
105 15 1
15 106 1
106 102 1
15 107 1
107 108 1
15 108 1
108 109 1
109 110 1
110 108 1
7 111 1
111 15 1
15 112 1
112 15 1
114 115 1
115 15 1
15 116 1
116 117 1
117 118 1
118 114 1
15 119 1
119 120 1
120 15 1
15 44 1
44 74 1
74 121 1
15 122 1
122 15 1
102 123 1
123 124 1
124 102 1
27 125 1
125 126 1
126 127 1
127 128 1
128 15 1
24 129 1
129 27 1
102 125 1
125 27 1
102 130 1
130 102 1
102 74 1
74 131 1
131 83 1
83 24 1
24 83 1
83 27 1
27 7 1
37 27 1
27 107 1
107 27 1
27 24 1
24 37 1
15 132 1
132 15 1
24 133 1
133 15 1
37 10 1
10 15 1
24 134 1
134 15 1
37 53 1
53 135 1
135 136 1
136 83 1
15 137 1
137 37 1
15 138 1
138 15 1
24 139 1
139 15 1
7 27 1
15 140 1
140 15 1
15 28 1
28 15 1
15 141 1
141 15 1
15 10 1
10 142 1
142 113 1
27 143 1
143 15 1
15 70 1
70 144 1
144 145 1
24 74 1
74 114 1
15 121 1
114 146 1
146 24 1
7 24 1
24 147 1
147 145 1
71 93 1
93 15 1
15 148 1
148 149 1
149 70 1
70 150 1
150 145 1
145 151 1
151 145 1
145 7 1
7 113 1
145 113 1
145 83 1
83 152 1
152 15 1
15 22 1
22 15 1
15 153 1
153 154 1
154 155 1
155 156 1
156 157 1
157 71 1
71 156 1
156 83 1
83 157 1
157 158 1
