4 7 39
7 4 38
22 4 32
4 22 31
4 3 19
3 4 18
12 4 18
4 12 16
24 7 12
7 24 9
4 24 7
5 6 6
6 5 6
16 4 6
4 16 5
3 12 4
4 15 4
15 4 4
5 23 4
23 5 4
24 4 4
4 5 3
6 4 3
8 4 3
4 6 3
7 3 3
17 5 3
5 7 3
7 18 3
18 7 3
5 17 3
22 5 3
7 8 2
4 8 2
7 9 2
7 10 2
10 7 2
12 3 2
5 3 2
7 5 2
16 7 2
7 16 2
3 22 2
5 22 2
4 23 2
5 27 2
27 5 2
1 2 1
2 3 1
8 7 1
9 4 1
7 11 1
11 4 1
3 13 1
13 12 1
12 13 1
13 14 1
14 4 1
15 7 1
7 15 1
4 17 1
5 4 1
3 7 1
18 4 1
4 18 1
4 13 1
13 4 1
7 19 1
19 20 1
20 7 1
9 5 1
5 21 1
21 16 1
4 9 1
9 7 1
17 4 1
3 5 1
23 22 1
23 4 1
24 25 1
25 24 1
22 7 1
7 26 1
26 4 1
