4 3 178
3 4 163
3 17 24
17 3 23
3 13 18
13 3 15
7 4 14
3 7 11
9 10 11
4 7 11
2 3 9
10 9 9
12 3 9
3 2 8
3 12 8
3 5 7
7 3 7
35 3 7
3 35 7
3 66 7
66 3 7
5 3 6
28 3 6
3 28 6
3 8 5
4 26 5
26 4 4
3 33 4
33 3 4
3 61 4
65 3 4
8 3 3
3 16 3
16 3 3
3 9 3
22 4 3
47 3 3
49 50 3
3 54 3
54 3 3
26 3 3
61 3 3
3 62 3
3 65 3
3 74 3
76 75 3
61 62 3
62 3 3
4 2 2
2 4 2
9 11 2
13 4 2
10 3 2
4 22 2
24 3 2
4 25 2
3 40 2
3 42 2
42 3 2
3 44 2
44 3 2
3 45 2
45 4 2
3 46 2
3 47 2
50 3 2
3 22 2
22 57 2
3 26 2
3 64 2
64 4 2
68 69 2
74 3 2
75 76 2
75 4 2
62 61 2
1 2 1
3 6 1
6 3 1
8 7 1
7 9 1
11 3 1
3 14 1
14 3 1
3 15 1
15 3 1
3 18 1
18 3 1
5 18 1
18 9 1
9 19 1
19 9 1
11 20 1
20 3 1
3 21 1
21 13 1
3 23 1
23 24 1
25 4 1
4 18 1
18 27 1
27 28 1
28 29 1
29 25 1
25 29 1
29 30 1
30 31 1
31 30 1
30 32 1
32 30 1
30 3 1
33 34 1
34 33 1
33 35 1
3 36 1
36 3 1
35 33 1
3 37 1
37 9 1
9 24 1
17 38 1
38 3 1
3 39 1
39 3 1
40 3 1
40 41 1
41 3 1
3 43 1
43 3 1
4 45 1
45 3 1
46 47 1
46 3 1
3 48 1
48 49 1
3 49 1
50 49 1
3 51 1
51 3 1
3 52 1
52 3 1
3 53 1
53 3 1
3 38 1
38 55 1
55 56 1
56 4 1
57 22 1
22 58 1
58 57 1
57 4 1
7 22 1
57 3 1
3 59 1
59 60 1
60 4 1
62 4 1
4 61 1
3 63 1
63 4 1
8 4 1
3 56 1
56 65 1
65 12 1
13 65 1
3 67 1
67 3 1
3 68 1
69 68 1
69 70 1
70 69 1
69 3 1
3 71 1
71 3 1
3 72 1
72 3 1
3 73 1
73 3 1
74 4 1
4 75 1
4 76 1
61 4 1
25 65 1
3 77 1
77 3 1
65 62 1
62 78 1
78 4 1
9 4 1
3 79 1
79 80 1
80 3 1
3 81 1
81 3 1
13 7 1
7 13 1
