5 6 51
6 5 44
24 5 36
5 24 35
8 19 34
8 5 31
19 8 30
5 8 29
7 5 27
5 7 21
25 7 20
7 25 17
19 5 17
12 6 15
8 7 14
6 12 14
9 8 13
6 7 12
7 8 12
6 25 12
5 19 12
8 9 11
5 25 10
7 6 9
6 8 9
8 6 9
25 6 9
25 5 8
30 8 7
11 5 6
19 18 6
8 30 6
5 11 5
18 19 5
24 6 5
6 24 5
3 4 4
4 3 4
24 7 4
19 22 4
8 12 4
12 22 4
6 11 3
7 12 3
12 8 3
5 12 3
7 24 3
22 12 3
22 5 3
19 32 3
32 8 3
22 19 3
12 7 3
11 8 2
11 14 2
14 11 2
21 22 2
22 21 2
19 12 2
12 19 2
19 21 2
21 19 2
29 19 2
12 24 2
32 19 2
8 32 2
22 8 2
24 25 2
25 24 2
24 19 2
8 25 2
34 11 2
1 2 1
2 3 1
3 5 1
8 10 1
10 5 1
11 6 1
5 13 1
13 6 1
14 5 1
5 15 1
15 7 1
7 15 1
15 6 1
5 14 1
7 16 1
16 6 1
12 5 1
7 4 1
4 5 1
5 4 1
4 17 1
17 18 1
18 20 1
20 19 1
18 21 1
21 17 1
17 23 1
23 11 1
11 24 1
5 26 1
26 27 1
27 8 1
19 28 1
28 29 1
19 29 1
22 17 1
17 8 1
5 17 1
17 28 1
28 21 1
21 8 1
12 30 1
30 12 1
25 30 1
8 29 1
29 30 1
19 23 1
23 31 1
31 19 1
19 9 1
8 22 1
30 33 1
33 8 1
19 34 1
34 30 1
30 19 1
22 30 1
30 22 1
12 35 1
35 19 1
25 12 1
8 24 1
19 7 1
6 9 1
25 36 1
36 12 1
7 11 1
11 22 1
25 8 1
19 11 1
11 19 1
6 19 1
24 37 1
37 38 1
38 39 1
39 24 1
5 40 1
40 8 1
9 19 1
5 9 1
6 22 1
5 22 1
5 41 1
41 18 1
18 42 1
42 43 1
43 8 1
7 18 1
18 41 1
41 44 1
44 43 1
43 34 1
11 34 1
5 45 1
45 5 1
