16 9 94
9 16 91
9 10 53
10 9 53
9 11 38
11 9 33
6 2 30
16 10 30
2 6 28
10 16 28
11 16 24
23 9 24
9 23 24
9 26 23
16 11 21
26 9 21
17 16 17
16 19 17
19 16 17
16 17 16
27 9 13
9 27 12
14 9 11
16 13 11
9 13 10
13 9 10
9 14 10
13 16 9
26 10 9
10 26 9
9 19 8
23 10 8
26 16 8
11 13 7
9 12 7
27 28 7
28 9 7
10 23 7
14 11 6
12 9 6
19 9 6
8 23 6
16 26 6
8 9 5
9 2 5
11 14 5
13 11 5
23 8 5
25 16 5
28 27 5
9 28 5
40 26 5
41 42 5
42 43 5
61 57 5
57 61 5
9 8 4
2 9 4
11 21 4
16 25 4
9 17 4
17 9 4
10 17 4
13 15 4
26 40 4
62 10 4
10 62 4
7 8 3
7 9 3
9 7 3
11 12 3
12 13 3
13 14 3
19 2 3
21 22 3
22 21 3
21 11 3
21 9 3
2 10 3
17 10 3
23 17 3
17 23 3
11 23 3
23 11 3
12 16 3
59 60 3
2 3 2
2 7 2
2 11 2
13 12 2
11 15 2
15 11 2
10 21 2
9 21 2
2 16 2
10 2 2
16 2 2
15 16 2
15 13 2
14 13 2
15 9 2
40 45 2
40 47 2
43 40 2
16 12 2
56 57 2
57 58 2
58 57 2
60 59 2
1 2 1
3 2 1
3 4 1
4 3 1
3 5 1
5 6 1
8 7 1
8 2 1
12 11 1
11 17 1
11 18 1
18 13 1
14 12 1
2 19 1
2 20 1
20 11 1
11 19 1
19 11 1
21 10 1
11 10 1
21 19 1
19 10 1
16 8 1
9 24 1
24 10 1
10 24 1
24 9 1
10 11 1
11 25 1
16 27 1
9 29 1
29 28 1
28 29 1
29 27 1
26 23 1
10 30 1
30 9 1
23 26 1
26 31 1
31 9 1
9 31 1
31 10 1
17 11 1
16 14 1
13 32 1
32 11 1
12 15 1
12 14 1
9 15 1
13 25 1
25 9 1
13 2 1
2 33 1
33 2 1
10 34 1
34 2 1
2 35 1
35 36 1
36 37 1
37 38 1
38 35 1
35 39 1
39 26 1
40 41 1
43 44 1
44 40 1
45 41 1
43 46 1
46 45 1
45 46 1
46 40 1
26 47 1
47 40 1
47 48 1
48 41 1
40 49 1
49 40 1
45 26 1
40 50 1
50 40 1
47 51 1
51 41 1
43 26 1
26 52 1
52 40 1
26 41 1
10 27 1
9 53 1
53 54 1
54 55 1
55 56 1
57 56 1
57 59 1
60 16 1
16 61 1
61 9 1
9 62 1
62 9 1
10 6 1
2 63 1
63 2 1
2 64 1
64 2 1
2 65 1
