7 8 26
8 7 25
6 7 11
7 6 11
7 25 10
11 12 9
7 11 9
11 7 9
25 7 9
8 10 8
12 11 8
10 8 7
7 13 7
13 7 7
11 8 7
8 11 7
9 8 5
9 7 5
28 9 5
7 29 5
8 9 4
13 11 4
7 9 4
9 28 4
29 7 4
11 13 3
7 17 3
17 7 3
5 7 2
7 12 2
12 7 2
26 8 2
1 2 1
2 3 1
3 4 1
4 1 1
1 5 1
5 6 1
7 5 1
6 5 1
10 11 1
11 9 1
7 10 1
10 14 1
14 15 1
15 10 1
10 16 1
16 7 1
12 13 1
11 17 1
17 18 1
18 19 1
19 18 1
18 20 1
20 21 1
21 7 1
8 17 1
17 22 1
22 7 1
7 23 1
23 18 1
18 7 1
11 24 1
24 11 1
8 13 1
13 12 1
12 8 1
8 12 1
25 26 1
8 27 1
27 26 1
8 26 1
26 28 1
29 30 1
30 31 1
31 9 1
9 29 1
29 11 1
12 32 1
32 7 1
7 33 1
33 8 1
