22 15 26
15 22 25
5 15 23
15 5 21
25 22 15
22 25 15
7 5 11
5 7 10
22 5 9
25 7 7
5 22 7
41 25 7
41 11 7
7 25 6
25 41 6
22 41 6
11 41 6
26 25 5
30 22 5
22 30 5
41 22 5
11 14 4
22 14 4
29 22 4
22 32 4
7 29 4
5 6 3
6 5 3
11 12 3
14 11 3
11 15 3
15 11 3
14 22 3
25 26 3
7 26 3
26 7 3
29 31 3
31 29 3
32 22 3
7 22 3
22 7 3
12 22 3
22 12 3
32 7 3
5 25 3
2 3 2
3 2 2
7 8 2
8 7 2
12 11 2
11 16 2
22 24 2
24 22 2
25 24 2
24 25 2
25 11 2
22 26 2
32 29 2
25 5 2
39 40 2
40 39 2
8 46 2
14 48 2
41 12 2
12 41 2
29 7 2
7 32 2
29 32 2
15 7 2
26 5 2
56 22 2
22 56 2
12 56 2
59 39 2
1 2 1
2 4 1
4 5 1
5 9 1
9 10 1
10 11 1
11 13 1
13 11 1
16 17 1
17 15 1
15 17 1
17 11 1
11 18 1
18 11 1
16 19 1
19 10 1
10 20 1
20 21 1
21 14 1
14 23 1
23 22 1
14 25 1
11 22 1
25 27 1
27 26 1
5 28 1
28 29 1
29 30 1
30 29 1
22 33 1
33 34 1
34 25 1
15 35 1
35 15 1
5 11 1
12 5 1
5 36 1
36 37 1
37 38 1
38 39 1
39 41 1
25 42 1
42 41 1
41 43 1
43 25 1
25 30 1
30 25 1
25 29 1
11 44 1
44 11 1
41 45 1
45 41 1
41 8 1
46 8 1
46 47 1
47 14 1
48 14 1
48 41 1
14 41 1
41 21 1
21 5 1
5 49 1
49 22 1
22 50 1
50 22 1
7 51 1
51 43 1
43 22 1
25 52 1
52 5 1
5 52 1
52 15 1
15 53 1
53 54 1
54 7 1
7 54 1
54 9 1
9 15 1
11 5 1
22 29 1
29 21 1
21 22 1
5 55 1
55 5 1
15 26 1
5 26 1
15 41 1
41 19 1
19 56 1
56 57 1
57 56 1
56 58 1
58 22 1
22 57 1
57 22 1
26 12 1
56 12 1
56 59 1
39 59 1
39 14 1
14 5 1
