29 9 17
92 9 17
9 92 16
46 17 15
17 46 15
19 20 14
22 19 14
9 29 13
20 19 12
19 22 12
9 110 9
13 9 8
9 13 7
23 46 7
46 23 7
23 17 6
17 23 6
19 17 5
13 29 5
89 20 5
110 9 5
17 19 4
20 9 4
29 13 4
29 62 4
20 24 3
19 23 3
23 19 3
19 16 3
46 19 3
9 62 3
62 29 3
70 29 3
20 89 3
9 89 3
114 105 3
22 23 2
24 20 2
27 20 2
16 22 2
19 36 2
41 37 2
19 46 2
61 29 2
61 9 2
9 61 2
46 64 2
9 70 2
70 71 2
71 70 2
29 71 2
23 80 2
62 9 2
89 105 2
89 9 2
9 20 2
105 9 2
9 8 2
89 8 2
1 2 1
2 3 1
3 4 1
4 5 1
5 6 1
6 7 1
7 8 1
8 9 1
9 10 1
10 9 1
9 11 1
11 12 1
12 9 1
9 14 1
14 15 1
15 16 1
16 17 1
17 18 1
18 19 1
17 21 1
21 19 1
22 17 1
17 22 1
17 24 1
24 25 1
25 24 1
24 26 1
26 20 1
24 21 1
21 22 1
22 27 1
9 28 1
28 13 1
13 30 1
30 31 1
31 13 1
13 32 1
32 9 1
9 33 1
33 34 1
34 33 1
33 13 1
29 19 1
19 24 1
24 22 1
22 24 1
24 35 1
35 27 1
36 19 1
36 16 1
16 37 1
37 8 1
8 13 1
9 37 1
37 38 1
38 16 1
16 39 1
39 40 1
40 41 1
37 41 1
37 42 1
42 43 1
43 41 1
41 21 1
21 44 1
44 21 1
21 45 1
45 21 1
21 5 1
5 46 1
20 47 1
47 20 1
19 48 1
48 19 1
19 49 1
49 20 1
20 23 1
23 20 1
20 50 1
50 51 1
51 52 1
52 53 1
53 54 1
54 55 1
55 46 1
46 56 1
56 46 1
19 56 1
56 57 1
57 58 1
58 19 1
16 19 1
20 59 1
59 20 1
20 3 1
3 19 1
23 60 1
60 22 1
22 20 1
20 60 1
60 61 1
29 61 1
9 23 1
23 63 1
63 46 1
64 65 1
65 17 1
17 66 1
66 17 1
46 20 1
20 67 1
67 21 1
21 68 1
68 69 1
69 23 1
23 29 1
29 70 1
71 9 1
71 29 1
62 17 1
46 72 1
72 46 1
46 73 1
73 46 1
17 74 1
74 17 1
17 75 1
75 76 1
76 77 1
77 46 1
64 78 1
78 64 1
64 22 1
19 79 1
79 22 1
80 23 1
80 81 1
81 80 1
80 82 1
82 83 1
83 84 1
84 85 1
85 19 1
22 86 1
86 19 1
22 87 1
87 22 1
22 60 1
60 88 1
88 22 1
19 89 1
89 62 1
62 90 1
90 62 1
62 91 1
91 29 1
92 29 1
29 93 1
93 94 1
94 22 1
20 95 1
95 20 1
20 96 1
96 97 1
97 19 1
19 98 1
98 19 1
19 99 1
99 100 1
100 99 1
99 101 1
101 22 1
22 97 1
97 89 1
89 22 1
22 89 1
89 102 1
102 89 1
89 103 1
103 104 1
104 105 1
105 106 1
106 107 1
107 108 1
108 89 1
105 109 1
109 89 1
110 30 1
30 9 1
110 92 1
89 111 1
111 89 1
89 99 1
99 19 1
20 112 1
112 113 1
113 114 1
105 114 1
105 115 1
115 105 1
110 60 1
60 9 1
110 114 1
8 92 1
8 116 1
116 78 1
78 8 1
8 105 1
105 89 1
105 8 1
8 117 1
117 89 1
8 89 1
8 118 1
118 29 1
62 20 1
20 119 1
119 120 1
120 89 1
