18 17 27
17 18 26
17 34 19
34 17 17
33 57 12
8 9 11
8 38 11
38 8 10
57 33 10
9 8 9
33 17 9
23 8 5
17 33 5
34 33 5
38 34 5
34 38 5
18 49 5
4 5 4
8 23 4
33 34 4
49 17 4
5 4 3
38 17 3
42 8 3
34 18 3
49 34 3
18 29 2
29 18 2
17 38 2
8 42 2
18 34 2
34 47 2
48 49 2
34 49 2
29 31 2
17 62 2
62 17 2
1 2 1
2 3 1
3 4 1
5 6 1
6 7 1
7 8 1
9 10 1
10 8 1
9 11 1
11 8 1
8 12 1
12 13 1
13 14 1
14 8 1
8 15 1
15 16 1
16 17 1
17 19 1
19 20 1
20 21 1
21 18 1
17 22 1
22 18 1
17 21 1
21 17 1
17 23 1
23 24 1
24 23 1
8 25 1
25 17 1
17 26 1
26 8 1
8 27 1
27 28 1
28 18 1
29 30 1
30 29 1
18 31 1
31 30 1
30 32 1
32 33 1
34 35 1
35 36 1
36 17 1
17 37 1
37 33 1
17 39 1
39 17 1
17 40 1
40 17 1
17 41 1
41 17 1
17 42 1
8 34 1
17 43 1
43 34 1
34 12 1
12 38 1
38 44 1
44 8 1
17 45 1
45 34 1
18 46 1
46 18 1
47 34 1
34 48 1
49 48 1
47 50 1
50 49 1
49 51 1
51 49 1
49 52 1
52 18 1
49 53 1
53 18 1
49 29 1
31 29 1
31 54 1
54 8 1
8 55 1
55 8 1
8 56 1
56 8 1
38 33 1
57 18 1
17 49 1
17 58 1
58 33 1
57 59 1
59 33 1
57 60 1
60 57 1
33 61 1
61 33 1
62 63 1
63 64 1
64 65 1
65 17 1
17 57 1
57 66 1
66 67 1
67 68 1
68 62 1
17 69 1
69 38 1
38 70 1
70 38 1
8 17 1
18 71 1
71 18 1
17 72 1
72 17 1
17 8 1
8 73 1
