6 12 47
12 6 46
22 12 23
10 6 21
12 13 19
6 10 18
13 12 17
12 22 17
12 2 8
2 12 8
27 13 7
13 27 7
6 7 6
7 6 6
13 26 6
12 10 5
13 2 5
13 6 5
27 22 5
12 14 4
14 12 4
2 13 4
6 13 4
14 13 3
18 6 3
26 13 3
26 27 3
6 22 3
7 8 2
8 7 2
6 8 2
8 6 2
6 11 2
10 12 2
12 15 2
15 6 2
6 15 2
13 14 2
6 18 2
6 2 2
27 26 2
26 12 2
22 6 2
22 13 2
12 27 2
1 2 1
2 3 1
3 4 1
4 5 1
5 6 1
6 9 1
9 6 1
11 10 1
14 6 1
6 14 1
15 16 1
16 12 1
15 12 1
12 17 1
17 6 1
12 18 1
6 19 1
19 6 1
11 6 1
6 20 1
20 12 1
12 21 1
21 12 1
12 23 1
23 22 1
22 10 1
10 22 1
2 24 1
24 6 1
2 25 1
25 13 1
26 14 1
6 26 1
13 22 1
6 27 1
22 27 1
2 22 1
10 11 1
11 12 1
