2 1 73
1 2 70
2 10 49
10 2 48
2 9 27
9 2 25
11 2 18
2 11 17
2 24 8
24 2 8
30 2 8
2 21 7
21 2 7
2 30 7
2 7 6
28 2 6
2 28 6
5 6 5
9 12 5
7 2 5
4 5 4
6 5 4
8 2 4
9 1 4
13 2 4
18 2 4
2 4 4
1 3 3
5 7 3
12 9 3
1 9 3
10 9 3
2 18 3
2 27 3
27 2 3
3 1 2
1 4 2
2 8 2
10 11 2
12 2 2
2 13 2
2 15 2
15 11 2
11 16 2
16 2 2
7 9 2
11 15 2
2 22 2
4 2 2
9 10 2
7 8 1
9 8 1
11 9 1
9 13 1
2 14 1
14 11 1
1 13 1
15 17 1
17 9 1
9 11 1
9 18 1
2 19 1
19 2 1
1 20 1
20 2 1
7 10 1
22 23 1
23 1 1
3 4 1
6 2 1
2 25 1
25 2 1
2 26 1
26 2 1
4 1 1
22 2 1
2 5 1
5 2 1
1 28 1
28 29 1
29 28 1
10 30 1
2 31 1
31 2 1
1 10 1
2 32 1
32 10 1
28 33 1
33 2 1
15 2 1
