10 24 37
24 10 37
10 21 15
21 10 13
29 10 9
10 17 8
10 14 8
14 10 8
17 10 7
21 17 7
17 21 7
10 29 7
21 25 5
29 25 5
25 21 4
25 29 4
4 5 3
12 13 3
14 13 3
12 19 3
20 21 3
26 21 3
5 28 3
21 24 3
5 7 2
10 11 2
11 10 2
10 12 2
13 12 2
13 14 2
14 12 2
15 14 2
13 15 2
12 14 2
19 12 2
21 20 2
25 26 2
27 25 2
28 5 2
30 29 2
24 29 2
1 2 1
2 3 1
3 4 1
5 6 1
6 4 1
7 5 1
7 8 1
8 4 1
5 9 1
9 10 1
12 15 1
14 15 1
15 16 1
16 17 1
17 16 1
16 10 1
15 12 1
12 18 1
18 12 1
19 10 1
17 14 1
14 20 1
21 22 1
22 21 1
21 23 1
23 22 1
22 10 1
24 25 1
21 26 1
21 27 1
25 5 1
28 23 1
23 29 1
25 30 1
29 30 1
29 31 1
31 32 1
32 21 1
24 21 1
10 33 1
33 34 1
34 24 1
24 35 1
35 24 1
10 36 1
36 10 1
24 31 1
31 24 1
21 37 1
37 24 1
24 27 1
25 27 1
27 11 1
11 38 1
38 4 1
