3 19 101
19 3 95
19 5 47
5 19 43
3 5 37
5 3 37
40 19 9
55 57 9
23 19 8
19 40 8
19 2 7
19 41 7
41 19 7
19 49 7
26 27 6
57 55 6
5 40 6
2 19 5
19 43 5
49 19 5
70 61 5
40 3 5
3 40 5
2 3 4
8 9 4
9 8 4
18 21 4
19 22 4
19 23 4
27 26 4
19 29 4
43 19 4
57 56 4
61 70 4
40 5 4
5 73 4
5 6 3
8 11 3
19 20 3
21 18 3
22 19 3
29 19 3
35 19 3
2 5 3
5 2 3
49 3 3
55 56 3
12 55 3
8 72 3
72 8 3
73 19 3
19 78 3
78 19 3
73 5 3
5 8 2
18 19 2
20 19 2
22 23 2
27 25 2
35 29 2
6 26 2
8 37 2
37 38 2
19 35 2
3 2 2
39 19 2
41 43 2
43 41 2
3 49 2
52 31 2
31 5 2
5 31 2
31 3 2
19 31 2
56 57 2
56 55 2
55 12 2
56 60 2
57 6 2
6 57 2
19 77 2
19 79 2
79 80 2
80 19 2
85 8 2
8 85 2
3 73 2
19 73 2
1 2 1
3 4 1
4 3 1
6 7 1
7 6 1
6 5 1
8 10 1
10 8 1
11 8 1
11 12 1
12 11 1
11 13 1
13 8 1
8 14 1
14 8 1
11 15 1
15 8 1
8 16 1
16 8 1
8 17 1
17 8 1
8 18 1
20 18 1
19 18 1
21 19 1
19 24 1
24 25 1
25 26 1
25 28 1
28 29 1
29 30 1
30 23 1
19 26 1
27 23 1
23 31 1
31 23 1
23 26 1
26 32 1
32 23 1
23 27 1
26 23 1
23 28 1
28 5 1
3 23 1
23 33 1
33 23 1
23 22 1
22 34 1
34 22 1
19 8 1
8 19 1
22 35 1
29 35 1
29 22 1
22 24 1
24 29 1
29 24 1
24 19 1
5 30 1
30 3 1
25 29 1
29 6 1
6 22 1
29 27 1
26 36 1
36 8 1
38 37 1
37 8 1
38 5 1
6 35 1
19 27 1
27 6 1
27 5 1
2 29 1
29 39 1
19 39 1
39 40 1
40 39 1
41 42 1
42 41 1
43 44 1
44 41 1
41 3 1
3 29 1
29 5 1
19 45 1
45 5 1
19 46 1
46 3 1
19 47 1
47 23 1
19 48 1
48 3 1
19 14 1
14 50 1
50 51 1
51 3 1
3 52 1
52 3 1
49 52 1
31 52 1
5 52 1
52 5 1
31 19 1
5 53 1
53 54 1
54 53 1
53 19 1
5 55 1
56 58 1
58 55 1
56 59 1
59 56 1
56 12 1
60 56 1
60 57 1
57 61 1
61 62 1
62 63 1
63 64 1
64 65 1
65 66 1
66 14 1
14 57 1
57 59 1
59 67 1
67 59 1
59 55 1
6 68 1
68 6 1
55 69 1
69 55 1
57 70 1
61 57 1
57 3 1
3 70 1
70 55 1
55 71 1
71 3 1
3 55 1
55 5 1
5 12 1
12 3 1
8 3 1
3 7 1
7 73 1
3 74 1
74 75 1
75 19 1
3 76 1
76 19 1
77 19 1
77 3 1
3 81 1
81 5 1
5 82 1
82 5 1
40 83 1
83 40 1
40 84 1
84 3 1
73 85 1
85 19 1
73 3 1
73 86 1
86 87 1
87 19 1
3 15 1
15 88 1
