24 3 21
3 24 18
39 24 13
24 39 12
15 44 11
44 15 9
3 13 6
18 13 6
3 20 5
13 3 5
13 18 5
44 40 5
3 5 4
3 8 4
8 3 4
3 9 4
20 3 4
3 31 4
31 3 4
3 32 4
3 40 4
40 3 4
40 44 4
18 33 4
33 18 4
3 1 3
5 3 3
1 3 3
19 3 3
19 33 3
33 19 3
3 36 3
36 3 3
43 44 3
3 44 3
32 3 3
9 3 2
18 19 2
19 13 2
13 19 2
3 21 2
21 3 2
30 19 2
18 3 2
3 19 2
33 15 2
3 41 2
44 43 2
44 3 2
1 55 2
1 2 1
2 3 1
1 4 1
4 5 1
5 1 1
1 6 1
6 3 1
3 7 1
7 3 1
9 1 1
1 9 1
9 10 1
10 3 1
3 11 1
11 12 1
12 10 1
10 1 1
5 13 1
13 14 1
14 15 1
15 16 1
16 17 1
17 16 1
16 18 1
3 22 1
22 3 1
3 6 1
6 23 1
23 24 1
24 1 1
1 25 1
25 26 1
26 25 1
25 1 1
3 27 1
27 28 1
28 1 1
1 29 1
29 15 1
15 30 1
19 30 1
19 15 1
15 19 1
19 1 1
1 18 1
3 18 1
3 15 1
15 3 1
32 9 1
9 29 1
29 9 1
9 13 1
13 31 1
31 13 1
33 3 1
3 33 1
15 33 1
9 34 1
34 3 1
3 35 1
35 3 1
1 37 1
37 18 1
13 38 1
38 3 1
20 39 1
39 8 1
8 39 1
24 13 1
13 29 1
29 3 1
13 24 1
41 3 1
41 1 1
1 42 1
42 43 1
44 45 1
45 46 1
46 44 1
44 47 1
47 48 1
48 47 1
47 44 1
44 49 1
49 47 1
47 45 1
45 43 1
43 50 1
50 44 1
44 51 1
51 3 1
13 33 1
40 14 1
14 39 1
39 1 1
1 52 1
52 6 1
6 53 1
53 39 1
39 20 1
20 32 1
32 13 1
13 1 1
1 54 1
54 1 1
55 44 1
44 56 1
56 57 1
57 24 1
24 58 1
58 59 1
59 60 1
60 24 1
44 29 1
29 44 1
44 61 1
61 1 1
55 13 1
13 15 1
44 18 1
19 18 1
18 15 1
15 8 1
8 62 1
62 44 1
44 63 1
63 44 1
44 20 1
20 24 1
3 64 1
64 65 1
65 66 1
66 67 1
