9 3 30
2 9 28
9 2 25
3 2 23
37 57 23
57 37 22
57 2 22
2 57 22
3 9 17
2 14 17
14 2 15
2 3 14
10 2 11
2 10 10
11 2 10
2 48 10
48 2 10
14 9 9
2 11 9
2 30 8
4 9 7
26 27 7
9 14 6
27 26 6
30 31 6
22 37 6
6 4 5
22 2 5
25 2 5
2 25 5
30 2 5
31 30 5
7 2 5
9 22 5
37 22 5
71 69 5
69 71 5
2 4 4
9 4 4
4 14 4
3 14 4
30 35 4
2 7 4
4 6 3
2 13 3
15 10 3
14 3 3
18 4 3
14 20 3
9 30 3
35 30 3
22 9 3
22 50 3
30 22 3
2 60 3
22 30 3
3 4 2
4 7 2
9 10 2
4 3 2
13 2 2
13 9 2
14 4 2
4 13 2
2 16 2
15 2 2
2 15 2
10 9 2
4 18 2
20 4 2
9 20 2
20 2 2
20 18 2
18 20 2
2 24 2
3 25 2
25 26 2
27 28 2
28 27 2
30 9 2
30 3 2
3 30 2
2 31 2
35 2 2
37 2 2
2 22 2
45 46 2
50 22 2
60 2 2
2 61 2
62 2 2
63 22 2
4 22 2
22 4 2
1 2 1
4 5 1
5 4 1
7 5 1
5 6 1
7 4 1
4 8 1
8 6 1
4 10 1
9 11 1
11 10 1
9 12 1
12 2 1
10 13 1
4 2 1
13 4 1
13 15 1
10 15 1
16 11 1
16 3 1
3 15 1
2 17 1
17 4 1
2 18 1
4 19 1
19 4 1
4 20 1
2 20 1
20 14 1
20 9 1
20 21 1
21 9 1
3 22 1
2 23 1
23 3 1
24 3 1
3 24 1
24 9 1
24 25 1
25 9 1
25 3 1
26 25 1
27 3 1
3 29 1
29 30 1
30 28 1
28 2 1
30 32 1
32 30 1
2 33 1
33 2 1
31 2 1
10 34 1
34 9 1
9 34 1
34 35 1
9 31 1
31 9 1
35 36 1
36 37 1
22 38 1
38 39 1
39 2 1
31 40 1
40 41 1
41 42 1
42 9 1
10 22 1
22 43 1
43 44 1
44 2 1
30 10 1
10 45 1
45 33 1
33 45 1
46 45 1
46 47 1
47 2 1
31 35 1
30 39 1
39 38 1
38 2 1
35 9 1
3 7 1
2 49 1
49 2 1
2 51 1
51 10 1
10 30 1
2 37 1
37 9 1
3 52 1
52 53 1
53 37 1
37 54 1
54 55 1
55 56 1
56 55 1
55 37 1
57 3 1
2 58 1
58 35 1
35 59 1
59 35 1
61 46 1
46 62 1
2 46 1
46 2 1
2 62 1
61 2 1
60 63 1
2 63 1
22 57 1
57 64 1
64 4 1
4 64 1
64 65 1
65 35 1
35 66 1
66 22 1
22 35 1
35 22 1
50 64 1
64 9 1
2 67 1
67 22 1
30 7 1
7 9 1
2 68 1
68 4 1
3 51 1
51 2 1
2 69 1
69 70 1
70 71 1
71 72 1
72 73 1
