6 5 22
5 6 18
4 6 17
4 5 15
6 4 13
5 4 13
27 5 12
5 27 11
9 5 7
12 13 6
27 6 6
42 4 6
5 63 6
42 5 6
5 42 6
13 12 5
4 27 5
63 5 5
35 5 5
5 35 5
5 9 5
2 3 4
4 42 4
5 97 4
21 27 4
33 5 4
2 1 3
6 27 3
29 6 3
13 4 3
4 13 3
42 27 3
61 5 3
61 27 3
29 5 3
35 4 3
5 64 3
5 87 3
27 21 3
5 33 3
1 2 2
7 8 2
9 10 2
4 12 2
6 12 2
20 7 2
22 4 2
23 5 2
5 22 2
6 29 2
32 27 2
27 33 2
35 27 2
27 36 2
27 4 2
6 42 2
5 12 2
12 52 2
31 27 2
27 23 2
55 27 2
5 61 2
6 35 2
64 5 2
66 5 2
5 23 2
20 4 2
87 5 2
6 92 2
97 5 2
5 101 2
23 103 2
103 23 2
2 5 2
3 2 2
3 4 1
6 7 1
8 9 1
10 9 1
10 11 1
11 12 1
13 5 1
5 7 1
7 5 1
5 14 1
14 15 1
15 6 1
6 16 1
16 17 1
17 12 1
12 18 1
18 4 1
12 19 1
19 20 1
20 21 1
21 6 1
12 7 1
8 20 1
7 20 1
7 22 1
4 7 1
7 23 1
5 24 1
24 4 1
5 25 1
25 6 1
6 26 1
26 6 1
27 12 1
12 27 1
27 28 1
28 27 1
27 29 1
29 27 1
27 30 1
30 31 1
31 32 1
33 34 1
34 29 1
27 35 1
36 27 1
4 37 1
37 38 1
38 5 1
27 39 1
39 40 1
40 27 1
27 41 1
41 42 1
4 22 1
22 43 1
43 42 1
4 44 1
44 45 1
45 42 1
42 46 1
46 42 1
42 30 1
30 42 1
42 6 1
42 47 1
47 42 1
42 36 1
36 42 1
42 35 1
35 42 1
42 48 1
48 49 1
49 42 1
42 50 1
50 4 1
42 51 1
51 4 1
4 30 1
30 9 1
12 4 1
52 53 1
53 6 1
6 31 1
6 54 1
54 5 1
5 32 1
36 32 1
32 42 1
23 55 1
27 55 1
27 56 1
56 33 1
33 57 1
57 58 1
58 42 1
5 59 1
59 60 1
60 61 1
5 62 1
62 61 1
27 61 1
27 63 1
63 29 1
63 6 1
35 29 1
29 35 1
4 35 1
64 65 1
65 5 1
5 30 1
30 6 1
6 66 1
66 67 1
67 42 1
42 68 1
68 42 1
42 69 1
69 70 1
70 42 1
42 71 1
71 5 1
4 66 1
5 66 1
5 72 1
72 73 1
73 4 1
4 61 1
61 74 1
74 61 1
23 75 1
75 5 1
52 30 1
30 4 1
5 76 1
76 6 1
6 77 1
77 6 1
6 78 1
78 79 1
79 6 1
6 80 1
80 81 1
81 26 1
26 20 1
22 6 1
6 67 1
67 6 1
5 82 1
82 83 1
83 84 1
84 85 1
85 5 1
5 26 1
26 12 1
12 6 1
12 86 1
86 6 1
87 88 1
88 87 1
87 89 1
89 87 1
87 4 1
5 29 1
5 20 1
6 20 1
20 6 1
6 90 1
90 29 1
6 91 1
91 92 1
92 55 1
55 6 1
92 93 1
93 6 1
92 5 1
4 74 1
74 4 1
4 94 1
94 4 1
6 33 1
33 95 1
95 4 1
4 3 1
3 35 1
4 9 1
5 96 1
96 5 1
97 98 1
98 81 1
81 5 1
97 4 1
4 99 1
99 81 1
81 12 1
12 5 1
27 37 1
37 30 1
30 35 1
35 100 1
100 98 1
98 5 1
101 5 1
101 6 1
6 23 1
23 42 1
42 64 1
64 90 1
90 4 1
27 102 1
102 21 1
23 95 1
95 23 1
23 104 1
104 27 1
5 105 1
105 27 1
5 106 1
106 4 1
4 107 1
107 108 1
108 9 1
9 109 1
109 110 1
110 111 1
111 5 1
5 112 1
112 5 1
5 113 1
113 9 1
9 2 1
5 2 1
1 114 1
114 1 1
1 115 1
115 2 1
2 116 1
116 2 1
2 117 1
117 2 1
3 16 1
16 3 1
1 118 1
118 119 1
119 120 1
120 2 1
2 121 1
121 2 1
2 122 1
122 2 1
3 123 1
123 2 1
2 124 1
124 2 1
5 125 1
125 2 1
2 126 1
126 5 1
5 127 1
127 5 1
5 21 1
21 5 1
27 10 1
10 42 1
42 31 1
27 42 1
5 128 1
128 27 1
27 129 1
129 22 1
22 27 1
27 113 1
113 4 1
5 130 1
