10 9 51
9 10 50
9 15 43
15 9 42
16 9 41
13 9 36
9 13 36
9 16 36
15 16 21
16 15 18
30 13 17
13 30 16
13 10 13
10 13 11
10 30 10
30 10 9
13 35 9
22 9 8
13 16 8
16 13 8
7 9 8
9 7 8
35 13 8
9 22 7
15 13 7
10 23 7
23 10 7
14 9 6
9 35 6
61 9 6
5 4 5
4 7 5
9 14 5
21 16 5
7 23 5
13 15 5
16 21 5
9 61 5
4 5 4
7 4 4
14 15 4
23 7 4
21 15 4
9 48 4
48 9 4
35 9 4
5 7 3
7 5 3
8 9 3
9 8 3
14 16 3
19 20 3
15 18 3
18 15 3
9 31 3
10 4 3
4 10 3
62 61 3
15 14 2
16 14 2
18 19 2
20 19 2
20 14 2
15 21 2
9 23 2
25 23 2
23 22 2
22 26 2
26 9 2
23 27 2
13 28 2
28 13 2
31 15 2
15 31 2
35 16 2
16 35 2
35 15 2
37 15 2
13 31 2
14 13 2
16 47 2
47 16 2
9 49 2
49 48 2
48 14 2
49 14 2
14 49 2
15 10 2
61 62 2
1 2 1
2 3 1
3 4 1
4 6 1
6 7 1
7 6 1
6 5 1
7 8 1
8 10 1
10 11 1
11 12 1
12 13 1
15 17 1
17 18 1
20 18 1
18 20 1
20 9 1
9 19 1
19 18 1
19 9 1
9 20 1
14 20 1
16 20 1
20 15 1
16 22 1
22 14 1
14 22 1
23 24 1
24 25 1
23 25 1
23 16 1
15 23 1
9 26 1
26 22 1
26 23 1
27 7 1
16 10 1
10 15 1
9 6 1
6 15 1
13 24 1
24 13 1
9 29 1
29 13 1
31 32 1
32 9 1
31 14 1
9 21 1
14 33 1
33 14 1
16 34 1
34 9 1
15 35 1
13 26 1
15 36 1
36 16 1
15 37 1
37 16 1
16 37 1
35 37 1
15 7 1
7 15 1
31 38 1
38 13 1
31 13 1
13 39 1
39 13 1
13 14 1
13 38 1
38 40 1
40 15 1
15 22 1
22 16 1
15 41 1
41 14 1
14 42 1
42 43 1
43 16 1
22 44 1
44 13 1
13 45 1
45 9 1
9 38 1
38 46 1
46 9 1
31 9 1
27 23 1
23 15 1
14 50 1
50 16 1
16 30 1
13 21 1
10 14 1
9 28 1
28 51 1
51 23 1
23 14 1
14 52 1
52 14 1
35 53 1
53 35 1
30 9 1
10 16 1
7 10 1
10 54 1
54 10 1
10 55 1
55 10 1
4 50 1
50 4 1
10 7 1
7 56 1
56 4 1
4 57 1
57 58 1
58 59 1
59 4 1
4 60 1
60 7 1
35 61 1
61 16 1
16 62 1
9 63 1
