2 18 52
18 2 44
28 2 34
2 28 32
17 18 28
18 17 27
2 17 17
17 2 16
2 58 10
2 8 9
23 2 9
46 2 9
58 2 9
2 23 8
18 37 8
22 21 8
2 22 7
37 2 7
2 46 7
5 2 6
8 2 6
2 15 6
37 18 6
21 2 6
15 51 6
58 28 6
15 2 5
22 2 5
28 18 5
18 29 5
28 31 5
31 28 5
21 22 5
51 15 5
46 28 5
18 58 5
28 58 5
58 18 5
4 5 4
6 2 4
2 7 4
2 5 4
7 5 4
18 28 4
38 37 4
2 37 4
17 46 4
28 46 4
58 17 4
7 2 3
5 7 3
8 10 3
10 2 3
29 2 3
2 30 3
37 38 3
2 38 3
17 37 3
46 17 3
18 46 3
18 38 3
38 18 3
17 58 3
59 58 3
29 17 3
29 15 3
5 4 2
17 22 2
29 18 2
30 18 2
18 30 2
30 17 2
38 2 2
37 17 2
38 17 2
28 17 2
17 28 2
29 46 2
46 29 2
29 47 2
2 21 2
18 15 2
17 29 2
18 6 2
30 2 2
46 58 2
58 46 2
58 59 2
2 59 2
15 29 2
15 37 2
37 29 2
1 2 1
2 3 1
3 4 1
5 6 1
2 4 1
8 9 1
9 8 1
10 11 1
11 8 1
2 10 1
8 12 1
12 10 1
10 13 1
13 2 1
2 13 1
13 14 1
14 15 1
15 16 1
16 17 1
18 19 1
19 17 1
18 20 1
20 6 1
17 21 1
21 17 1
22 24 1
24 22 1
22 23 1
17 25 1
25 26 1
26 18 1
17 27 1
27 28 1
30 31 1
31 30 1
30 32 1
32 30 1
17 30 1
30 33 1
33 30 1
30 34 1
34 33 1
33 35 1
35 36 1
36 18 1
37 39 1
39 38 1
18 34 1
34 18 1
18 31 1
31 36 1
36 40 1
40 41 1
41 28 1
28 34 1
34 28 1
28 42 1
42 38 1
38 28 1
28 33 1
33 28 1
28 35 1
35 28 1
28 6 1
17 43 1
43 24 1
24 17 1
17 24 1
24 29 1
29 44 1
44 29 1
29 45 1
45 29 1
47 34 1
34 35 1
35 31 1
31 47 1
47 17 1
46 18 1
28 22 1
22 48 1
48 21 1
2 49 1
49 18 1
17 38 1
15 50 1
50 18 1
51 17 1
17 52 1
52 53 1
53 54 1
54 51 1
51 2 1
2 55 1
55 28 1
47 31 1
31 2 1
6 17 1
2 56 1
56 57 1
57 2 1
28 30 1
30 36 1
36 30 1
37 20 1
20 37 1
2 26 1
26 28 1
28 59 1
59 28 1
59 2 1
59 60 1
60 18 1
18 59 1
15 61 1
61 15 1
18 62 1
62 2 1
18 63 1
63 2 1
18 64 1
64 18 1
2 62 1
62 18 1
2 29 1
17 6 1
6 18 1
17 31 1
31 34 1
34 17 1
2 34 1
34 31 1
31 48 1
48 2 1
2 65 1
