54 14 37
14 54 35
39 14 33
14 39 32
14 11 29
11 14 27
6 14 24
14 6 21
11 10 19
10 11 16
14 7 15
41 11 14
14 15 13
11 41 13
11 71 13
7 14 11
15 14 11
11 55 11
71 11 11
49 6 10
6 49 10
14 49 10
49 14 10
55 11 9
58 14 9
14 58 8
59 14 8
49 66 8
14 59 8
14 62 8
42 11 7
11 74 7
62 14 7
13 7 6
13 14 6
11 42 6
57 11 6
66 49 6
11 39 6
13 15 6
15 13 6
7 6 5
14 13 5
11 40 5
40 11 5
11 57 5
62 63 5
74 11 5
130 11 5
66 130 5
7 13 4
61 62 4
63 62 4
72 11 4
90 13 4
13 91 4
91 13 4
62 61 4
96 11 4
11 66 4
66 11 4
130 49 4
39 11 4
5 6 3
6 7 3
7 5 3
5 7 3
8 14 3
14 33 3
39 59 3
60 59 3
11 65 3
11 70 3
70 11 3
84 14 3
14 84 3
13 90 3
59 13 3
11 130 3
130 66 3
133 11 3
130 137 3
144 145 3
6 5 2
7 8 2
11 12 2
16 14 2
33 14 2
8 11 2
11 13 2
52 7 2
59 39 2
59 60 2
65 11 2
49 11 2
11 72 2
14 83 2
83 14 2
55 41 2
11 6 2
11 96 2
66 72 2
14 72 2
13 59 2
14 63 2
55 8 2
14 110 2
110 14 2
61 91 2
106 11 2
11 106 2
49 130 2
11 54 2
10 133 2
137 130 2
11 143 2
143 11 2
145 144 2
145 147 2
147 14 2
11 149 2
54 11 2
1 2 1
2 3 1
3 4 1
4 5 1
8 9 1
9 10 1
12 11 1
12 10 1
10 7 1
15 16 1
14 17 1
17 18 1
18 19 1
19 20 1
20 21 1
21 22 1
22 23 1
23 24 1
24 23 1
23 15 1
15 25 1
25 26 1
26 27 1
27 28 1
28 6 1
14 29 1
29 30 1
30 14 1
13 31 1
31 13 1
14 32 1
32 13 1
7 34 1
34 14 1
15 35 1
35 36 1
36 15 1
15 37 1
37 38 1
38 39 1
39 8 1
6 43 1
43 44 1
44 14 1
14 45 1
45 7 1
7 46 1
46 47 1
47 48 1
48 49 1
6 50 1
50 6 1
6 51 1
51 52 1
7 52 1
7 51 1
51 7 1
7 53 1
53 14 1
11 56 1
56 54 1
54 48 1
48 11 1
11 58 1
39 61 1
63 17 1
17 64 1
64 11 1
65 14 1
14 66 1
66 14 1
14 67 1
67 68 1
68 14 1
14 69 1
69 14 1
71 57 1
71 42 1
11 73 1
73 11 1
74 75 1
75 11 1
74 76 1
76 77 1
77 78 1
78 14 1
33 79 1
79 80 1
80 14 1
14 81 1
81 82 1
82 14 1
59 84 1
84 85 1
85 86 1
86 87 1
87 14 1
14 88 1
88 6 1
14 89 1
89 6 1
41 55 1
14 90 1
13 61 1
61 16 1
16 62 1
61 92 1
92 11 1
11 93 1
93 7 1
7 11 1
11 94 1
94 95 1
95 96 1
6 11 1
11 8 1
14 96 1
11 97 1
97 66 1
66 98 1
98 66 1
72 66 1
72 55 1
55 99 1
99 11 1
55 72 1
14 100 1
100 60 1
13 60 1
60 13 1
13 11 1
10 14 1
63 101 1
101 63 1
63 102 1
102 7 1
7 15 1
15 6 1
63 13 1
15 60 1
60 15 1
13 103 1
103 14 1
62 6 1
6 104 1
104 105 1
105 14 1
7 62 1
62 106 1
106 55 1
8 55 1
8 16 1
16 107 1
107 14 1
14 108 1
108 14 1
6 109 1
109 14 1
14 111 1
111 14 1
7 112 1
112 6 1
7 113 1
113 14 1
72 114 1
114 11 1
6 42 1
42 115 1
115 7 1
7 42 1
42 14 1
6 116 1
116 80 1
80 7 1
14 117 1
117 11 1
42 118 1
118 14 1
14 99 1
99 119 1
119 11 1
11 7 1
7 120 1
120 42 1
14 121 1
121 122 1
122 123 1
123 14 1
14 52 1
52 124 1
124 98 1
98 125 1
125 61 1
91 61 1
91 126 1
126 91 1
91 49 1
66 127 1
127 8 1
14 128 1
128 14 1
14 129 1
129 11 1
42 106 1
106 42 1
11 49 1
11 131 1
131 11 1
14 132 1
132 10 1
11 133 1
10 39 1
39 6 1
6 39 1
6 54 1
14 130 1
39 42 1
42 39 1
11 134 1
134 14 1
14 115 1
115 130 1
49 135 1
135 6 1
6 136 1
136 130 1
137 66 1
11 138 1
138 11 1
11 139 1
139 140 1
140 12 1
12 8 1
8 141 1
141 11 1
10 142 1
142 11 1
11 16 1
16 54 1
14 16 1
54 144 1
144 146 1
146 145 1
14 147 1
14 148 1
148 144 1
147 11 1
14 8 1
14 46 1
46 11 1
149 46 1
46 150 1
150 54 1
11 151 1
151 11 1
11 152 1
152 153 1
153 154 1
154 14 1
149 14 1
11 155 1
155 14 1
