6 5 90
5 6 87
10 11 61
11 10 49
11 6 18
11 42 15
42 11 15
31 6 12
6 11 12
6 31 11
38 6 11
5 28 10
6 38 10
3 4 8
4 3 8
11 21 8
21 11 8
6 27 8
6 32 8
32 6 8
11 22 7
5 23 7
27 6 7
28 5 7
35 11 7
9 5 6
12 11 6
14 6 6
22 11 6
14 11 6
11 14 6
23 6 6
11 35 6
11 12 5
11 13 5
11 5 5
6 14 5
11 20 5
23 5 5
27 5 5
5 33 5
33 6 5
6 13 5
13 6 5
8 5 4
6 9 4
11 3 4
20 11 4
11 15 4
6 23 4
6 33 4
5 9 3
5 10 3
13 11 3
3 11 3
5 8 3
5 11 3
20 10 3
15 11 3
26 6 3
5 27 3
30 5 3
33 5 3
36 37 3
40 11 3
11 40 3
13 10 2
5 14 2
15 10 2
11 16 2
5 17 2
10 20 2
24 25 2
25 10 2
6 26 2
28 29 2
29 5 2
5 30 2
6 10 2
10 21 2
21 10 2
11 31 2
37 36 2
1 2 1
2 3 1
3 5 1
6 7 1
7 8 1
8 9 1
9 8 1
9 6 1
5 12 1
3 10 1
14 5 1
5 15 1
10 5 1
16 11 1
16 10 1
17 5 1
17 18 1
18 5 1
5 19 1
19 11 1
11 8 1
8 11 1
22 14 1
14 22 1
22 10 1
10 22 1
22 5 1
5 24 1
11 24 1
28 27 1
5 26 1
6 30 1
33 11 1
10 6 1
11 34 1
34 11 1
5 35 1
6 36 1
37 38 1
6 39 1
39 11 1
11 39 1
39 40 1
40 41 1
41 11 1
31 11 1
11 43 1
43 11 1
