1 80 19
80 1 17
51 67 16
1 51 14
51 1 14
7 6 10
1 67 10
6 7 9
67 1 9
67 51 9
50 51 8
7 1 8
51 50 7
1 7 7
15 1 6
16 15 5
50 1 5
80 51 5
7 15 5
15 7 5
1 15 5
13 15 4
39 7 4
80 7 4
67 80 4
142 15 4
15 16 3
15 13 3
7 39 3
50 7 3
7 50 3
51 7 3
7 51 3
1 50 3
13 16 3
1 72 3
72 1 3
1 74 3
74 1 3
77 1 3
7 80 3
1 2 2
4 5 2
16 13 2
1 87 2
92 15 2
80 67 2
51 46 2
1 124 2
67 140 2
15 142 2
2 3 1
3 4 1
5 6 1
6 8 1
8 9 1
9 6 1
6 10 1
10 7 1
6 5 1
5 7 1
7 5 1
5 11 1
11 6 1
6 12 1
12 6 1
7 13 1
13 14 1
14 15 1
13 17 1
17 13 1
15 18 1
18 7 1
6 19 1
19 20 1
20 21 1
21 7 1
6 22 1
22 23 1
23 24 1
24 25 1
25 6 1
6 26 1
26 6 1
7 4 1
5 27 1
27 28 1
28 29 1
29 30 1
30 29 1
29 31 1
31 32 1
32 33 1
33 34 1
34 35 1
35 32 1
32 36 1
36 16 1
16 37 1
37 38 1
38 39 1
7 40 1
40 41 1
41 42 1
42 43 1
43 7 1
7 44 1
44 45 1
45 46 1
46 47 1
47 48 1
48 46 1
46 49 1
49 50 1
50 52 1
52 50 1
51 53 1
53 50 1
50 54 1
54 50 1
1 55 1
55 51 1
50 13 1
13 56 1
56 57 1
57 13 1
16 58 1
58 16 1
16 59 1
59 13 1
15 60 1
60 61 1
61 62 1
62 63 1
63 60 1
60 64 1
64 65 1
65 66 1
66 67 1
67 68 1
68 69 1
69 42 1
42 7 1
7 42 1
42 70 1
70 71 1
71 1 1
1 73 1
73 1 1
1 75 1
75 76 1
76 77 1
1 16 1
15 78 1
78 79 1
79 80 1
7 81 1
81 82 1
82 67 1
67 83 1
83 67 1
67 60 1
60 81 1
81 84 1
84 85 1
85 53 1
53 7 1
51 86 1
86 1 1
87 88 1
88 1 1
7 89 1
89 80 1
1 90 1
90 1 1
80 87 1
87 50 1
51 87 1
87 51 1
51 91 1
91 92 1
15 93 1
93 94 1
94 92 1
92 95 1
95 15 1
15 92 1
92 16 1
16 92 1
15 96 1
96 87 1
87 80 1
1 97 1
97 98 1
98 1 1
1 99 1
99 100 1
100 87 1
87 1 1
80 16 1
15 101 1
101 1 1
87 102 1
102 103 1
103 65 1
65 104 1
104 51 1
67 105 1
105 99 1
99 77 1
1 106 1
106 1 1
1 107 1
107 108 1
108 109 1
109 1 1
1 108 1
108 110 1
110 111 1
111 112 1
112 113 1
113 1 1
1 114 1
114 77 1
1 115 1
115 116 1
116 48 1
48 116 1
116 98 1
98 99 1
99 87 1
87 117 1
117 105 1
105 87 1
87 99 1
99 80 1
80 105 1
105 51 1
51 118 1
118 51 1
67 119 1
119 120 1
120 121 1
121 80 1
80 50 1
1 122 1
122 51 1
51 123 1
123 51 1
51 69 1
69 80 1
7 124 1
124 7 1
67 7 1
67 121 1
121 125 1
125 7 1
7 126 1
126 1 1
1 127 1
127 1 1
67 128 1
128 67 1
80 129 1
129 67 1
67 130 1
130 131 1
131 80 1
1 132 1
132 51 1
46 51 1
46 133 1
133 80 1
124 51 1
80 134 1
134 1 1
1 135 1
135 1 1
1 136 1
136 1 1
124 1 1
1 137 1
137 80 1
1 138 1
138 124 1
124 139 1
139 51 1
140 1 1
140 139 1
139 1 1
2 15 1
15 141 1
141 15 1
15 51 1
51 16 1
51 142 1
15 143 1
143 142 1
142 144 1
144 142 1
16 142 1
142 67 1
67 145 1
145 146 1
146 147 1
147 148 1
148 1 1
80 149 1
