4 5 49
5 4 46
5 10 40
10 5 34
4 7 27
7 4 27
14 7 27
7 14 27
17 5 19
5 17 18
10 7 15
7 10 14
7 5 14
5 7 12
3 7 10
7 3 9
9 4 7
4 8 5
8 9 5
4 9 5
7 25 5
4 10 4
10 4 4
24 7 4
7 24 4
8 4 3
9 7 3
4 12 3
12 4 3
13 4 3
25 7 3
3 4 2
11 7 2
7 8 2
4 13 2
4 14 2
13 5 2
5 13 2
10 14 2
14 4 2
16 14 2
18 5 2
10 20 2
10 23 2
23 7 2
7 23 2
3 14 2
25 3 2
10 3 2
1 2 1
2 3 1
4 6 1
6 4 1
5 9 1
9 5 1
10 11 1
5 11 1
7 9 1
9 8 1
4 11 1
11 4 1
14 5 1
14 13 1
13 12 1
12 13 1
14 10 1
5 15 1
15 16 1
16 15 1
15 7 1
7 16 1
14 16 1
14 17 1
10 18 1
5 18 1
4 19 1
19 4 1
20 5 1
5 20 1
20 10 1
20 7 1
7 21 1
21 22 1
22 10 1
23 24 1
24 5 1
23 4 1
14 3 1
14 25 1
3 25 1
14 23 1
23 14 1
5 21 1
21 7 1
4 3 1
25 10 1
3 10 1
25 14 1
