1 13 239
13 1 232
14 1 43
1 14 41
7 1 17
1 6 16
19 1 16
1 19 16
1 7 16
5 1 15
6 1 13
1 5 12
1 10 10
10 1 10
13 20 9
20 13 9
1 15 7
15 1 7
1 16 7
16 1 6
16 13 5
13 16 5
13 5 5
12 1 4
1 20 4
20 1 4
5 13 4
25 1 4
1 12 3
14 15 3
15 14 3
23 1 3
13 22 3
13 25 3
1 25 3
7 21 2
21 7 2
22 1 2
5 22 2
22 5 2
13 23 2
1 23 2
22 13 2
25 13 2
1 2 1
2 3 1
3 4 1
4 3 1
3 5 1
6 7 1
6 8 1
8 1 1
1 9 1
9 1 1
6 10 1
10 11 1
11 6 1
6 12 1
16 14 1
13 17 1
17 1 1
1 18 1
18 1 1
13 19 1
19 13 1
1 22 1
23 13 1
13 24 1
24 5 1
13 14 1
