5 1 73
1 5 73
7 5 41
5 7 40
5 26 32
1 7 31
26 5 31
7 1 29
5 2 12
2 5 10
10 7 8
2 7 7
7 10 7
7 2 6
25 5 4
16 5 3
5 25 3
7 27 3
27 28 3
28 7 3
2 1 2
4 5 2
8 2 2
11 7 2
1 12 2
12 1 2
5 16 2
7 26 2
1 2 1
1 3 1
3 4 1
5 6 1
6 5 1
1 8 1
2 8 1
2 9 1
9 10 1
10 9 1
9 11 1
7 11 1
2 13 1
13 14 1
14 15 1
15 16 1
5 17 1
17 5 1
7 18 1
18 7 1
10 19 1
19 2 1
2 10 1
7 19 1
19 10 1
7 20 1
20 2 1
5 21 1
21 7 1
7 21 1
21 1 1
1 22 1
22 5 1
5 22 1
22 23 1
23 24 1
24 1 1
1 25 1
5 27 1
27 7 1
28 27 1
7 28 1
27 26 1
26 4 1
26 1 1
7 29 1
29 5 1
5 8 1
8 7 1
7 8 1
8 1 1
7 30 1
30 5 1
5 31 1
31 1 1
5 24 1
24 5 1
5 32 1
32 10 1
10 5 1
1 33 1
33 7 1
26 7 1
26 34 1
34 35 1
35 34 1
