7 4 40
10 8 39
1 7 37
7 1 36
8 10 35
4 7 35
8 4 30
1 8 29
4 8 26
8 1 26
4 2 24
2 4 23
8 7 15
4 1 14
10 21 14
7 8 13
8 12 13
12 8 12
21 10 12
10 7 11
7 10 11
1 4 9
14 4 8
8 9 7
4 14 7
9 8 6
2 8 6
8 2 6
20 10 5
2 9 4
9 2 4
1 15 4
15 1 4
4 10 4
1 10 3
10 19 3
10 20 3
4 19 3
2 3 2
3 2 2
9 10 2
19 20 2
21 8 2
8 21 2
19 4 2
24 8 2
8 25 2
25 8 2
10 4 2
10 1 2
1 2 1
4 5 1
5 6 1
6 7 1
10 9 1
8 11 1
11 10 1
12 10 1
8 13 1
13 8 1
2 1 1
1 16 1
16 17 1
17 10 1
10 18 1
18 10 1
19 10 1
10 22 1
22 10 1
19 8 1
21 23 1
23 1 1
1 23 1
23 7 1
10 24 1
8 24 1
21 26 1
26 8 1
2 27 1
27 10 1
10 14 1
8 28 1
28 2 1
8 29 1
29 8 1
8 30 1
30 8 1
2 31 1
31 8 1
