14 7 175
7 14 173
14 10 44
10 14 42
10 7 39
7 10 38
76 61 37
61 76 31
77 76 28
60 7 23
7 60 23
14 61 22
61 7 21
76 77 21
7 61 16
61 14 16
36 35 15
45 14 15
14 45 14
7 62 12
13 14 11
35 36 11
35 7 11
7 35 10
14 13 10
76 14 10
7 13 9
7 36 9
36 7 9
62 7 9
7 58 9
58 7 9
7 38 8
38 7 8
7 54 8
35 37 8
61 64 8
14 76 8
15 14 7
54 7 7
38 36 7
36 61 7
61 36 7
61 77 7
13 7 6
14 15 6
27 14 6
36 37 6
38 35 6
40 7 6
37 7 6
45 7 6
7 45 6
35 40 6
7 37 6
62 35 6
35 62 6
62 36 6
64 61 6
64 60 6
7 65 6
65 7 6
37 36 6
7 27 5
7 40 5
21 14 5
106 14 5
20 7 4
36 38 4
40 38 4
37 62 4
36 62 4
60 64 4
36 40 4
7 77 4
14 27 3
10 27 3
37 38 3
38 37 3
37 40 3
41 7 3
35 38 3
36 45 3
40 45 3
45 36 3
10 21 3
10 57 3
61 60 3
60 61 3
38 40 3
37 35 3
40 37 3
61 35 3
40 76 3
77 61 3
60 62 3
14 77 3
7 76 3
7 106 3
106 7 3
7 9 2
9 7 2
7 11 2
7 18 2
7 20 2
7 21 2
21 7 2
14 22 2
22 7 2
24 14 2
14 20 2
20 14 2
14 24 2
27 7 2
27 10 2
14 43 2
43 14 2
45 35 2
46 35 2
47 45 2
57 58 2
58 57 2
57 10 2
57 59 2
40 62 2
63 62 2
62 20 2
76 38 2
76 40 2
61 40 2
62 60 2
7 81 2
14 41 2
14 21 2
61 100 2
14 36 2
37 61 2
100 61 2
61 102 2
77 14 2
77 7 2
76 7 2
14 106 2
1 2 1
2 3 1
3 4 1
4 5 1
5 6 1
6 7 1
7 5 1
5 8 1
8 7 1
10 4 1
4 7 1
11 7 1
7 12 1
12 13 1
7 16 1
16 14 1
14 17 1
17 7 1
18 7 1
14 19 1
19 15 1
14 23 1
23 24 1
24 10 1
14 25 1
25 26 1
26 7 1
14 28 1
28 14 1
14 29 1
29 7 1
27 30 1
30 31 1
31 10 1
10 32 1
32 14 1
11 10 1
14 33 1
33 34 1
34 35 1
35 39 1
39 7 1
7 41 1
7 42 1
42 14 1
14 44 1
44 7 1
45 46 1
35 45 1
35 47 1
45 48 1
48 36 1
37 10 1
10 49 1
49 50 1
50 10 1
10 51 1
51 14 1
10 52 1
52 53 1
53 12 1
12 53 1
53 14 1
10 38 1
7 55 1
55 56 1
56 23 1
23 57 1
10 58 1
58 10 1
59 10 1
59 60 1
40 36 1
62 40 1
62 45 1
45 62 1
62 46 1
35 63 1
62 41 1
41 62 1
62 63 1
40 47 1
45 61 1
60 10 1
60 66 1
66 35 1
7 67 1
67 37 1
36 68 1
68 35 1
35 69 1
69 70 1
70 38 1
36 71 1
71 29 1
29 72 1
72 7 1
54 73 1
73 35 1
14 74 1
74 14 1
14 58 1
58 14 1
38 75 1
75 76 1
38 76 1
36 76 1
76 35 1
35 76 1
76 36 1
76 69 1
69 61 1
60 78 1
78 7 1
62 79 1
79 60 1
37 60 1
62 38 1
35 41 1
7 80 1
80 36 1
40 35 1
81 7 1
7 82 1
82 36 1
62 83 1
83 35 1
7 84 1
84 81 1
81 38 1
62 37 1
62 85 1
85 38 1
7 86 1
86 7 1
14 87 1
87 7 1
7 88 1
88 14 1
14 89 1
89 7 1
41 10 1
7 90 1
90 14 1
14 91 1
91 10 1
21 10 1
10 92 1
92 14 1
14 93 1
93 14 1
14 94 1
94 14 1
14 95 1
95 14 1
13 96 1
96 13 1
7 97 1
97 36 1
38 61 1
61 38 1
40 14 1
35 61 1
38 98 1
98 7 1
61 99 1
99 61 1
100 14 1
7 100 1
36 14 1
61 10 1
61 101 1
101 61 1
102 14 1
14 103 1
103 14 1
81 12 1
12 14 1
102 61 1
40 61 1
61 37 1
60 104 1
104 38 1
35 21 1
14 105 1
105 14 1
36 81 1
81 61 1
13 107 1
107 108 1
108 106 1
13 106 1
14 6 1
6 106 1
18 14 1
