7 6 24
6 7 21
7 8 21
8 7 19
8 12 18
12 8 18
7 12 17
5 36 17
12 7 16
24 5 16
36 5 16
5 6 15
6 5 15
5 24 15
13 7 13
5 7 12
6 23 12
23 6 12
7 5 11
7 13 11
4 5 9
5 8 9
11 2 7
8 5 7
5 4 7
5 12 5
23 7 5
36 7 5
6 8 4
8 6 4
12 6 4
6 36 4
36 6 4
9 36 4
8 36 4
36 8 4
9 7 3
7 9 3
8 13 3
6 12 3
12 13 3
13 6 3
13 12 3
24 29 3
24 31 3
31 24 3
7 23 3
7 36 3
12 5 3
7 39 3
39 7 3
36 9 3
12 36 3
8 9 2
2 8 2
13 5 2
6 13 2
5 13 2
5 11 2
8 15 2
15 8 2
2 5 2
24 25 2
27 7 2
4 23 2
36 27 2
36 12 2
8 38 2
38 8 2
1 2 1
2 3 1
3 4 1
9 10 1
10 8 1
7 4 1
4 11 1
8 14 1
14 5 1
9 13 1
13 8 1
2 4 1
8 4 1
4 8 1
7 16 1
16 6 1
6 17 1
17 5 1
7 11 1
2 18 1
18 19 1
19 5 1
5 19 1
19 20 1
20 19 1
19 21 1
21 19 1
19 18 1
18 11 1
7 22 1
22 6 1
23 11 1
6 24 1
25 24 1
25 5 1
4 24 1
24 26 1
26 24 1
24 4 1
4 13 1
6 27 1
12 4 1
2 24 1
5 28 1
28 24 1
29 5 1
5 29 1
29 24 1
29 7 1
6 30 1
30 24 1
31 29 1
29 31 1
29 23 1
23 32 1
32 23 1
7 33 1
33 2 1
8 34 1
34 7 1
8 35 1
35 8 1
13 4 1
6 11 1
2 7 1
5 23 1
23 36 1
27 36 1
6 37 1
37 8 1
8 37 1
37 5 1
7 38 1
38 5 1
39 6 1
5 39 1
6 9 1
36 40 1
40 6 1
6 40 1
40 36 1
27 41 1
41 36 1
36 4 1
8 40 1
40 8 1
8 27 1
6 4 1
4 42 1
42 5 1
