28 3 175
3 28 170
27 3 49
3 27 46
3 43 27
43 3 27
3 35 21
2 3 18
35 3 17
3 2 15
3 32 14
27 28 13
32 3 13
3 34 13
33 3 12
3 33 12
3 10 11
10 3 11
34 3 11
5 3 10
3 24 10
28 27 10
35 34 10
51 3 10
3 5 9
3 17 9
24 3 9
34 35 8
3 51 8
17 3 7
20 19 6
32 27 6
36 3 6
3 72 6
72 3 6
5 2 5
3 20 5
34 28 5
3 59 5
3 7 4
7 3 4
19 20 4
20 3 4
27 32 4
35 28 4
33 36 4
43 33 4
53 3 4
28 43 4
2 5 3
7 5 3
16 3 3
19 3 3
3 19 3
3 22 3
22 3 3
3 25 3
25 3 3
30 3 3
28 35 3
3 36 3
3 37 3
17 32 3
39 3 3
3 39 3
43 17 3
45 3 3
43 49 3
28 51 3
59 3 3
59 60 3
35 27 3
2 7 2
3 15 2
3 16 2
18 19 2
3 21 2
21 3 2
3 26 2
27 33 2
28 34 2
36 28 2
37 3 2
28 32 2
32 17 2
32 39 2
3 42 2
28 45 2
3 45 2
3 30 2
3 46 2
48 43 2
49 3 2
3 53 2
43 51 2
51 43 2
55 28 2
36 33 2
28 59 2
60 3 2
60 28 2
34 33 2
43 64 2
64 43 2
3 55 2
68 3 2
27 35 2
46 3 2
30 28 2
43 35 2
3 79 2
80 3 2
3 80 2
39 43 2
3 83 2
1 2 1
3 4 1
4 3 1
3 6 1
6 2 1
5 7 1
7 8 1
8 3 1
3 9 1
9 3 1
3 11 1
11 10 1
3 12 1
12 3 1
10 13 1
13 3 1
10 14 1
14 10 1
15 3 1
15 16 1
17 18 1
19 18 1
3 18 1
18 3 1
3 23 1
23 24 1
26 3 1
26 27 1
27 29 1
29 27 1
27 30 1
30 27 1
3 31 1
31 3 1
33 30 1
34 36 1
32 38 1
38 32 1
32 40 1
40 41 1
41 3 1
42 43 1
32 44 1
44 2 1
45 17 1
17 24 1
24 33 1
36 35 1
34 30 1
46 28 1
3 47 1
47 43 1
43 48 1
49 43 1
3 50 1
50 28 1
3 38 1
38 43 1
33 43 1
24 28 1
51 52 1
52 17 1
17 53 1
43 54 1
54 43 1
43 55 1
55 51 1
51 55 1
51 54 1
54 51 1
33 39 1
39 28 1
28 39 1
39 56 1
56 43 1
43 57 1
57 28 1
27 58 1
58 27 1
3 60 1
3 61 1
61 3 1
59 28 1
20 28 1
3 62 1
62 3 1
33 63 1
63 28 1
43 65 1
65 43 1
43 27 1
55 3 1
28 66 1
66 36 1
33 53 1
3 67 1
67 33 1
33 68 1
34 68 1
68 32 1
32 35 1
27 1 1
1 34 1
28 42 1
42 3 1
3 69 1
69 3 1
3 70 1
70 45 1
45 43 1
33 27 1
3 71 1
71 34 1
28 30 1
28 5 1
3 73 1
73 3 1
33 34 1
35 33 1
35 74 1
74 3 1
3 48 1
43 28 1
35 75 1
75 43 1
3 76 1
76 3 1
49 77 1
77 3 1
3 78 1
78 28 1
79 3 1
17 80 1
80 43 1
43 39 1
3 81 1
81 3 1
79 39 1
39 20 1
19 82 1
82 3 1
17 43 1
43 32 1
83 27 1
39 32 1
32 57 1
57 43 1
17 20 1
19 46 1
42 32 1
28 84 1
84 3 1
24 85 1
85 3 1
37 27 1
19 28 1
28 36 1
3 86 1
86 27 1
28 87 1
87 3 1
3 49 1
35 36 1
3 68 1
3 88 1
88 43 1
3 89 1
89 3 1
43 7 1
3 90 1
90 34 1
33 28 1
83 3 1
