9 1 38
1 9 37
1 4 32
4 1 32
14 1 27
1 14 26
11 12 17
12 11 17
19 1 16
1 19 16
4 16 14
16 4 13
9 8 12
8 9 12
12 1 11
7 9 10
31 1 10
1 31 10
1 12 10
9 7 9
1 29 7
29 1 7
26 12 6
12 26 6
2 1 5
19 30 5
30 19 5
1 2 4
17 9 4
36 1 4
9 17 3
22 1 3
19 27 3
27 19 3
7 17 3
17 7 3
7 8 2
8 7 2
12 13 2
13 12 2
18 19 2
4 22 2
23 4 2
4 24 2
24 4 2
1 22 2
4 9 2
9 25 2
25 9 2
9 4 2
1 36 2
1 3 1
3 1 1
1 5 1
5 4 1
1 6 1
6 1 1
4 7 1
9 10 1
10 9 1
8 11 1
12 14 1
1 15 1
15 4 1
4 17 1
1 18 1
19 18 1
1 20 1
20 21 1
21 4 1
1 23 1
22 12 1
9 19 1
16 2 1
4 26 1
26 1 1
19 28 1
28 12 1
11 4 1
19 31 1
1 8 1
17 32 1
32 17 1
1 33 1
33 34 1
34 23 1
4 35 1
35 4 1
31 36 1
1 37 1
37 38 1
38 36 1
