12 4 23
4 12 20
3 5 14
3 4 13
36 12 13
4 3 12
12 36 12
2 3 11
3 27 10
5 3 9
27 3 9
29 12 9
12 14 8
23 12 8
12 29 8
3 2 7
5 2 7
12 3 7
12 2 7
2 12 7
14 12 7
4 2 6
2 5 6
3 12 6
5 12 6
4 16 6
12 22 6
12 23 6
5 14 6
14 5 6
12 13 5
22 12 5
12 32 5
12 5 4
14 15 4
16 4 4
12 28 4
28 12 4
23 29 4
32 12 4
13 12 3
15 12 3
15 14 3
5 4 3
2 18 3
18 3 3
29 23 3
23 35 3
35 23 3
2 4 2
12 10 2
10 12 2
12 15 2
3 18 2
18 2 2
4 5 2
32 3 2
32 4 2
33 34 2
34 33 2
32 14 2
4 36 2
1 2 1
3 6 1
6 4 1
4 7 1
7 4 1
4 8 1
8 9 1
9 10 1
10 11 1
11 4 1
13 10 1
10 13 1
16 17 1
17 15 1
15 3 1
18 19 1
19 18 1
3 20 1
20 10 1
10 5 1
5 10 1
10 21 1
21 3 1
22 3 1
3 23 1
14 3 1
2 23 1
13 15 1
15 2 1
3 24 1
24 25 1
25 4 1
4 26 1
26 12 1
27 4 1
4 24 1
24 4 1
4 28 1
28 23 1
15 23 1
23 28 1
28 29 1
2 30 1
30 31 1
31 4 1
4 32 1
32 10 1
10 32 1
3 32 1
2 32 1
4 33 1
33 2 1
5 15 1
14 2 1
2 10 1
10 3 1
4 15 1
15 32 1
14 32 1
16 12 1
29 3 1
13 14 1
36 4 1
12 37 1
37 38 1
38 39 1
39 12 1
12 40 1
40 16 1
16 40 1
40 12 1
3 41 1
41 42 1
42 4 1
