1 20 33
20 1 26
6 1 24
8 1 22
1 8 20
1 6 19
24 1 19
9 8 14
1 24 14
1 9 13
6 7 12
9 1 12
7 6 12
7 1 11
1 7 10
20 6 10
6 20 9
8 4 7
4 5 6
8 9 6
20 24 6
4 8 5
5 4 5
2 3 4
5 3 4
1 5 4
3 8 4
24 9 4
3 2 3
2 4 3
5 6 3
7 8 3
8 3 3
8 6 3
3 1 3
4 2 3
8 24 3
4 9 3
20 7 3
5 9 3
1 2 2
8 2 2
2 8 2
3 4 2
4 3 2
4 6 2
6 2 2
11 9 2
7 3 2
2 5 2
6 17 2
6 4 2
4 1 2
20 8 2
9 24 2
24 5 2
3 5 2
7 24 2
24 20 2
24 6 2
24 7 2
2 1 1
3 7 1
6 5 1
1 10 1
10 11 1
1 12 1
12 6 1
2 6 1
6 8 1
6 9 1
9 13 1
13 1 1
1 11 1
11 1 1
4 14 1
14 15 1
15 7 1
9 7 1
1 16 1
16 6 1
17 4 1
17 6 1
1 18 1
18 19 1
19 1 1
1 19 1
19 20 1
20 16 1
16 20 1
6 21 1
21 20 1
8 11 1
8 22 1
22 1 1
20 9 1
1 23 1
23 24 1
24 2 1
24 8 1
5 24 1
7 20 1
9 25 1
25 4 1
8 26 1
26 9 1
9 4 1
9 27 1
27 1 1
6 28 1
28 24 1
5 8 1
8 5 1
8 29 1
29 7 1
7 30 1
30 24 1
1 31 1
31 6 1
1 4 1
5 7 1
1 32 1
32 24 1
1 3 1
9 2 1
2 33 1
33 24 1
24 4 1
3 34 1
34 24 1
8 20 1
8 7 1
7 35 1
35 1 1
