1 6 44
6 1 39
24 1 32
1 24 30
6 7 26
7 1 23
1 7 22
7 6 22
17 25 12
7 26 8
25 17 8
1 2 7
18 1 6
26 7 6
1 46 6
47 1 6
2 1 5
6 2 5
1 26 5
24 7 5
7 17 5
18 26 5
26 17 5
7 24 4
26 18 4
18 7 4
26 1 4
18 24 4
17 26 4
17 1 4
6 24 4
24 6 4
2 6 3
17 18 3
19 6 3
24 17 3
1 17 3
17 7 3
7 18 3
25 7 3
25 18 3
24 18 3
1 18 3
2 7 2
25 24 2
18 17 2
24 25 2
7 25 2
25 1 2
2 24 2
6 43 2
1 25 2
46 7 2
7 47 2
1 51 2
51 1 2
46 47 2
1 3 1
3 1 1
1 4 1
4 1 1
1 5 1
5 1 1
7 8 1
8 7 1
1 9 1
9 6 1
6 9 1
9 1 1
1 10 1
10 7 1
7 11 1
11 1 1
1 12 1
12 6 1
6 13 1
13 1 1
6 14 1
14 15 1
15 6 1
6 16 1
16 17 1
6 5 1
5 19 1
7 20 1
20 6 1
7 21 1
21 1 1
6 22 1
22 6 1
6 23 1
23 1 1
26 24 1
26 27 1
27 7 1
7 28 1
28 1 1
17 24 1
1 29 1
29 1 1
24 30 1
30 1 1
1 31 1
31 18 1
24 2 1
2 19 1
19 7 1
1 32 1
32 1 1
1 33 1
33 1 1
1 34 1
34 1 1
1 35 1
35 36 1
36 6 1
1 37 1
37 38 1
38 24 1
1 39 1
39 1 1
7 40 1
40 17 1
17 6 1
1 41 1
41 6 1
1 42 1
42 1 1
43 6 1
6 44 1
44 1 1
43 24 1
24 45 1
45 24 1
2 26 1
7 42 1
42 19 1
6 19 1
26 48 1
48 1 1
1 49 1
49 18 1
26 50 1
50 18 1
18 46 1
46 1 1
1 47 1
47 24 1
24 52 1
52 17 1
17 46 1
46 24 1
24 47 1
46 53 1
53 47 1
46 6 1
1 54 1
54 1 1
6 55 1
55 1 1
1 56 1
56 24 1
7 2 1
1 57 1
