1 7 65
7 1 63
3 1 51
1 3 49
1 22 24
22 1 24
7 13 18
13 7 17
7 3 9
1 4 7
1 15 7
33 1 7
1 33 7
11 7 6
7 11 6
12 1 6
15 1 6
15 19 6
19 7 6
9 7 5
3 7 5
7 33 5
4 1 4
7 9 4
1 12 4
15 7 4
7 15 4
6 1 4
19 1 4
7 12 4
3 15 4
33 7 4
4 3 3
4 7 3
7 4 3
1 11 3
1 13 3
7 19 3
37 1 3
1 37 3
1 2 2
2 1 2
4 6 2
6 4 2
7 6 2
11 1 2
12 11 2
1 18 2
6 19 2
22 7 2
12 7 2
11 12 2
1 6 2
1 24 2
24 1 2
3 19 2
19 3 2
3 6 2
1 27 2
27 1 2
32 3 2
34 1 2
7 22 2
13 1 2
19 15 2
3 22 2
3 34 2
1 5 1
5 3 1
3 8 1
8 9 1
7 10 1
10 7 1
6 9 1
9 1 1
13 14 1
14 12 1
1 16 1
16 1 1
1 17 1
17 1 1
18 6 1
19 18 1
18 20 1
20 7 1
18 21 1
21 19 1
11 22 1
1 23 1
23 1 1
3 25 1
25 7 1
3 26 1
26 1 1
1 19 1
22 5 1
5 1 1
1 28 1
28 3 1
3 29 1
29 3 1
3 27 1
27 7 1
13 3 1
3 30 1
30 31 1
31 32 1
15 32 1
33 34 1
7 34 1
34 22 1
1 35 1
35 7 1
7 36 1
36 35 1
35 6 1
6 7 1
3 18 1
18 15 1
19 37 1
1 38 1
38 1 1
37 3 1
15 3 1
22 33 1
33 3 1
34 3 1
22 34 1
22 3 1
3 39 1
39 1 1
1 40 1
40 7 1
34 19 1
1 41 1
41 3 1
1 42 1
42 43 1
43 3 1
12 44 1
44 1 1
1 45 1
45 1 1
1 46 1
46 47 1
