26 1 76
1 26 75
1 14 28
14 1 25
18 1 11
1 25 11
25 1 11
4 1 10
1 4 9
1 18 9
1 7 8
7 1 8
7 26 7
26 7 6
7 8 5
8 7 5
21 7 4
7 9 3
21 18 3
18 21 3
7 21 3
7 18 3
1 9 2
14 15 2
15 1 2
9 7 2
19 18 2
1 2 1
2 1 1
1 3 1
3 1 1
1 5 1
5 4 1
1 6 1
6 1 1
9 10 1
10 7 1
7 10 1
10 11 1
11 12 1
12 13 1
13 1 1
1 13 1
13 7 1
15 14 1
14 16 1
16 1 1
1 17 1
17 1 1
1 19 1
18 19 1
1 20 1
20 21 1
18 7 1
18 22 1
22 1 1
14 7 1
18 16 1
16 18 1
1 23 1
23 24 1
24 1 1
1 27 1
27 28 1
28 1 1
1 29 1
29 30 1
30 29 1
29 31 1
31 32 1
32 1 1
1 33 1
33 1 1
1 15 1
7 34 1
34 7 1
9 35 1
35 1 1
1 36 1
36 7 1
9 1 1
