4 9 83
9 4 81
4 22 30
22 4 23
4 39 11
39 4 10
4 13 9
13 4 9
4 16 9
4 5 8
5 4 8
7 4 8
16 4 8
22 9 8
13 9 7
9 13 7
4 21 6
21 4 6
4 7 5
9 7 5
4 12 4
12 4 4
9 22 4
7 9 3
9 10 3
10 4 3
18 4 3
4 29 3
29 4 3
1 2 2
2 9 2
14 4 2
9 15 2
4 18 2
16 8 2
8 24 2
4 10 2
9 8 2
8 9 2
10 9 2
9 30 2
30 9 2
34 4 2
2 4 2
4 37 2
42 4 2
2 3 1
3 4 1
4 6 1
6 4 1
4 8 1
8 7 1
4 11 1
11 4 1
9 2 1
9 14 1
15 9 1
15 4 1
4 17 1
17 4 1
9 18 1
4 19 1
19 9 1
9 20 1
20 4 1
16 23 1
23 24 1
24 8 1
8 16 1
24 16 1
24 9 1
9 24 1
24 23 1
23 4 1
12 25 1
25 4 1
4 25 1
25 12 1
22 26 1
26 22 1
4 27 1
27 28 1
28 4 1
9 1 1
7 30 1
30 31 1
31 4 1
4 32 1
32 4 1
4 33 1
33 34 1
4 34 1
4 35 1
35 2 1
4 2 1
22 13 1
13 22 1
22 36 1
36 7 1
37 4 1
37 38 1
38 4 1
4 40 1
40 4 1
39 9 1
22 41 1
41 4 1
9 42 1
4 42 1
9 43 1
43 9 1
4 44 1
44 9 1
4 45 1
45 4 1
22 46 1
46 13 1
9 47 1
47 9 1
4 48 1
48 49 1
49 9 1
9 50 1
50 13 1
13 49 1
49 13 1
13 14 1
13 51 1
51 4 1
9 39 1
