2 1 94
1 2 92
1 12 66
12 1 65
2 14 32
14 2 31
1 31 19
31 1 16
1 14 12
11 1 10
1 11 9
14 1 9
1 15 8
15 1 7
1 7 7
44 14 7
14 33 7
6 1 6
1 9 6
9 1 6
7 1 6
23 1 6
1 23 6
24 2 6
14 44 6
33 14 6
1 6 5
2 24 5
11 14 5
14 11 5
31 2 5
42 1 5
27 14 5
3 1 4
2 5 4
5 2 4
14 16 4
16 14 4
14 27 4
1 42 4
1 3 3
7 2 3
1 20 3
20 1 3
6 14 3
14 3 3
3 14 3
14 6 3
27 1 3
2 31 3
14 36 3
36 14 3
14 29 3
29 14 3
14 22 3
22 14 3
24 1 3
5 1 2
1 8 2
8 1 2
1 5 2
2 13 2
1 18 2
2 6 2
14 25 2
25 14 2
1 27 2
6 31 2
31 7 2
7 31 2
1 32 2
32 1 2
2 33 2
14 5 2
44 24 2
24 44 2
9 14 2
31 12 2
1 24 2
3 4 1
4 1 1
5 6 1
2 7 1
1 10 1
10 1 1
13 2 1
15 2 1
1 16 1
16 1 1
2 3 1
1 17 1
17 1 1
18 2 1
2 19 1
19 2 1
1 21 1
21 4 1
4 9 1
9 21 1
21 1 1
2 22 1
22 1 1
18 1 1
12 23 1
24 11 1
14 26 1
26 24 1
27 12 1
12 28 1
28 1 1
12 29 1
29 1 1
12 27 1
12 2 1
2 30 1
30 7 1
31 6 1
33 2 1
2 34 1
34 2 1
33 3 1
14 35 1
35 2 1
14 37 1
37 14 1
5 16 1
16 5 1
1 38 1
38 2 1
1 39 1
39 1 1
1 40 1
40 2 1
2 16 1
16 41 1
41 1 1
23 43 1
43 42 1
1 44 1
14 45 1
45 14 1
14 46 1
46 14 1
33 27 1
14 17 1
17 14 1
1 19 1
19 4 1
4 19 1
19 14 1
14 19 1
19 1 1
31 47 1
47 14 1
14 24 1
14 7 1
7 14 1
6 9 1
14 9 1
14 31 1
12 31 1
31 27 1
14 48 1
48 14 1
14 49 1
49 12 1
13 1 1
5 13 1
13 24 1
1 50 1
50 12 1
