17 11 19
19 23 17
11 18 16
11 17 15
23 19 15
11 13 11
18 11 11
23 30 10
13 11 9
6 8 9
23 11 8
11 28 8
30 23 7
8 6 6
11 23 6
28 11 6
57 11 6
11 57 6
19 17 5
11 19 5
7 8 4
13 23 4
23 13 4
30 11 4
8 19 4
19 11 4
34 18 4
18 17 4
13 39 4
39 13 4
46 13 4
18 19 3
17 23 3
18 34 3
30 13 3
13 46 3
11 30 3
78 11 3
11 78 3
6 7 2
8 9 2
23 17 2
18 23 2
32 17 2
17 19 2
33 19 2
8 30 2
41 34 2
34 41 2
17 18 2
52 13 2
65 11 2
15 34 2
65 17 2
19 74 2
17 78 2
8 7 2
1 2 1
2 3 1
3 4 1
4 5 1
5 6 1
9 8 1
8 10 1
10 11 1
11 12 1
12 11 1
11 14 1
14 15 1
15 16 1
16 17 1
19 18 1
17 20 1
20 21 1
21 22 1
22 8 1
8 11 1
13 24 1
24 25 1
25 24 1
24 26 1
26 8 1
8 27 1
27 7 1
7 27 1
27 11 1
28 29 1
29 11 1
28 23 1
13 31 1
31 13 1
13 32 1
17 32 1
17 33 1
19 33 1
19 6 1
6 27 1
27 6 1
18 35 1
35 18 1
11 36 1
36 6 1
30 37 1
37 8 1
30 38 1
38 30 1
13 40 1
40 41 1
41 42 1
42 34 1
34 43 1
43 34 1
34 8 1
8 34 1
34 23 1
23 34 1
34 44 1
44 18 1
18 44 1
44 11 1
18 6 1
9 7 1
19 45 1
45 19 1
19 46 1
13 47 1
47 48 1
48 49 1
49 13 1
13 49 1
49 50 1
50 51 1
51 52 1
13 52 1
13 19 1
23 53 1
53 54 1
54 55 1
55 17 1
17 56 1
56 17 1
17 57 1
57 23 1
18 58 1
58 30 1
13 30 1
11 15 1
15 11 1
30 34 1
34 19 1
13 18 1
23 18 1
19 34 1
34 17 1
17 59 1
59 18 1
18 60 1
60 61 1
61 62 1
62 63 1
63 64 1
64 11 1
18 14 1
14 6 1
8 17 1
11 40 1
40 65 1
19 15 1
17 34 1
34 15 1
34 66 1
66 67 1
67 68 1
68 69 1
69 23 1
11 70 1
70 11 1
11 71 1
71 8 1
8 65 1
23 72 1
72 73 1
73 11 1
30 19 1
74 23 1
23 75 1
75 11 1
11 76 1
76 23 1
23 77 1
77 8 1
11 37 1
37 18 1
78 17 1
78 8 1
74 65 1
17 65 1
11 79 1
79 8 1
7 80 1
80 8 1
