12 4 103
4 12 102
5 4 55
4 5 50
13 4 47
4 13 46
4 6 41
7 4 36
4 7 36
6 4 35
5 12 33
12 5 33
4 20 28
20 4 27
17 20 20
20 17 18
4 11 17
11 4 16
15 4 14
6 5 12
4 15 12
13 5 12
15 13 9
5 6 8
5 13 8
5 15 8
6 13 7
7 12 7
20 5 7
13 6 6
13 15 6
12 13 6
12 7 6
5 20 6
13 12 6
15 5 5
8 5 4
20 13 4
5 7 3
5 8 3
6 17 3
12 15 3
12 6 3
13 20 3
4 17 3
6 12 3
7 6 2
8 4 2
11 12 2
6 15 2
15 6 2
4 21 2
21 4 2
4 22 2
17 4 2
1 2 1
2 3 1
3 4 1
6 7 1
7 8 1
6 9 1
9 5 1
6 8 1
4 8 1
4 10 1
10 4 1
12 11 1
4 14 1
14 6 1
13 16 1
16 4 1
17 18 1
18 17 1
17 19 1
19 17 1
15 12 1
22 20 1
4 23 1
23 4 1
20 15 1
15 24 1
24 20 1
4 24 1
24 4 1
20 24 1
24 6 1
17 6 1
17 13 1
20 12 1
13 19 1
19 20 1
20 19 1
19 13 1
