17 18 29
18 17 26
7 34 23
34 7 19
15 18 19
18 15 18
19 18 17
18 19 17
48 50 16
50 18 13
50 48 12
18 50 11
25 34 10
50 63 10
25 7 9
21 30 9
34 25 9
63 50 9
11 48 8
21 22 7
22 21 7
30 21 7
7 25 7
17 15 7
18 25 7
48 11 7
15 34 6
47 48 5
15 17 5
34 101 5
10 15 4
15 10 4
18 34 4
7 50 4
25 18 4
18 7 4
50 34 4
92 34 4
34 92 4
101 34 4
30 33 4
3 5 3
8 7 3
7 9 3
9 7 3
10 11 3
11 10 3
21 23 3
23 21 3
24 15 3
15 24 3
26 15 3
15 25 3
8 25 3
34 15 3
50 47 3
30 22 3
48 61 3
61 48 3
50 17 3
25 15 3
34 17 3
34 18 3
58 86 3
17 34 3
92 18 3
18 92 3
92 30 3
34 91 3
34 50 3
92 100 3
7 18 3
110 111 3
111 110 3
4 3 2
7 8 2
12 10 2
7 26 2
7 15 2
25 8 2
31 32 2
32 31 2
33 8 2
18 26 2
15 26 2
26 11 2
11 26 2
58 21 2
48 62 2
62 48 2
59 50 2
48 34 2
22 30 2
77 50 2
17 50 2
81 7 2
50 15 2
86 58 2
25 17 2
90 48 2
90 87 2
87 90 2
21 50 2
30 7 2
91 34 2
91 50 2
100 92 2
91 7 2
102 50 2
11 34 2
34 11 2
15 47 2
18 91 2
91 18 2
34 21 2
33 30 2
34 30 2
1 2 1
2 3 1
3 4 1
5 6 1
6 4 1
5 3 1
5 7 1
7 10 1
10 12 1
10 13 1
13 12 1
10 14 1
14 10 1
10 16 1
16 17 1
17 19 1
18 20 1
20 21 1
21 24 1
24 25 1
25 27 1
27 8 1
8 26 1
26 8 1
25 28 1
28 19 1
19 21 1
21 29 1
29 21 1
21 31 1
31 33 1
8 33 1
34 35 1
35 7 1
7 36 1
36 37 1
37 7 1
7 24 1
24 38 1
38 39 1
39 38 1
38 25 1
34 40 1
40 18 1
19 15 1
15 41 1
41 19 1
19 42 1
42 30 1
30 42 1
42 41 1
41 18 1
26 43 1
43 44 1
44 18 1
18 45 1
45 46 1
46 47 1
48 49 1
49 48 1
48 15 1
15 48 1
50 35 1
35 50 1
48 51 1
51 52 1
52 19 1
18 53 1
53 18 1
19 26 1
26 54 1
54 15 1
26 18 1
18 48 1
48 47 1
47 17 1
17 26 1
26 7 1
26 55 1
55 30 1
22 56 1
56 57 1
57 58 1
21 58 1
58 17 1
18 59 1
59 60 1
60 48 1
48 17 1
17 59 1
15 21 1
21 64 1
64 34 1
34 65 1
65 17 1
17 66 1
66 37 1
37 17 1
17 35 1
35 25 1
18 67 1
67 18 1
34 68 1
68 69 1
69 70 1
70 61 1
61 70 1
70 71 1
71 48 1
7 72 1
72 69 1
69 73 1
73 74 1
74 75 1
75 48 1
48 76 1
76 22 1
30 77 1
50 77 1
50 78 1
78 79 1
79 15 1
63 17 1
50 80 1
80 81 1
63 82 1
82 63 1
34 80 1
80 50 1
50 83 1
83 50 1
50 84 1
84 77 1
77 84 1
84 50 1
50 85 1
85 50 1
48 30 1
22 58 1
21 86 1
86 80 1
80 7 1
7 33 1
33 25 1
25 87 1
87 48 1
48 87 1
87 88 1
88 48 1
48 89 1
89 59 1
59 90 1
48 90 1
48 21 1
50 21 1
17 91 1
91 92 1
92 93 1
93 92 1
92 17 1
92 94 1
94 92 1
34 95 1
95 50 1
50 96 1
96 97 1
97 92 1
92 98 1
98 92 1
30 50 1
50 92 1
30 92 1
50 7 1
7 48 1
48 92 1
92 99 1
99 92 1
100 99 1
99 101 1
101 91 1
7 101 1
101 102 1
50 102 1
50 103 1
103 34 1
101 25 1
25 101 1
101 7 1
7 91 1
91 104 1
104 7 1
18 81 1
81 34 1
34 105 1
105 34 1
7 37 1
37 81 1
34 37 1
37 34 1
34 106 1
106 34 1
34 107 1
107 48 1
34 108 1
108 11 1
11 12 1
12 11 1
34 12 1
12 34 1
34 109 1
109 17 1
47 50 1
25 50 1
50 25 1
15 110 1
110 112 1
112 113 1
113 34 1
34 114 1
114 34 1
33 91 1
50 91 1
18 80 1
80 18 1
50 59 1
50 115 1
115 116 1
116 7 1
15 50 1
15 91 1
91 15 1
34 86 1
86 21 1
21 15 1
15 117 1
117 18 1
21 18 1
17 58 1
86 33 1
33 7 1
34 118 1
118 7 1
30 34 1
33 21 1
