67 15 34
15 67 34
65 15 22
15 65 18
56 15 17
15 56 16
61 15 14
15 61 14
71 67 11
76 102 9
102 76 9
110 111 8
111 110 8
67 71 7
15 71 6
71 72 6
72 71 6
71 15 6
109 110 5
110 113 5
113 114 5
110 109 4
113 110 4
114 113 4
122 102 4
15 69 3
69 21 3
21 15 3
76 71 3
102 94 3
102 122 3
102 123 3
102 15 3
152 153 3
153 152 3
3 5 2
5 6 2
6 7 2
7 6 2
26 29 2
29 26 2
55 56 2
15 55 2
67 72 2
15 90 2
94 95 2
98 101 2
103 102 2
102 103 2
94 102 2
76 94 2
94 76 2
123 102 2
15 102 2
159 122 2
1 2 1
2 3 1
3 4 1
4 3 1
5 3 1
6 5 1
6 8 1
8 9 1
9 8 1
8 10 1
10 8 1
8 11 1
11 8 1
8 12 1
12 8 1
8 1 1
1 8 1
8 13 1
13 14 1
14 15 1
15 16 1
16 17 1
17 18 1
18 19 1
19 15 1
15 1 1
1 20 1
20 21 1
21 22 1
22 23 1
23 24 1
24 25 1
25 26 1
26 27 1
27 26 1
26 28 1
28 26 1
26 30 1
30 26 1
26 31 1
31 32 1
32 33 1
33 34 1
34 35 1
35 36 1
36 26 1
26 37 1
37 38 1
38 39 1
39 40 1
40 41 1
41 42 1
42 41 1
41 43 1
43 41 1
41 44 1
44 45 1
45 41 1
41 46 1
46 41 1
41 47 1
47 48 1
48 26 1
26 49 1
49 50 1
50 51 1
51 52 1
52 53 1
53 54 1
54 55 1
56 57 1
57 58 1
58 59 1
59 15 1
15 60 1
60 38 1
38 61 1
61 62 1
62 63 1
63 56 1
56 64 1
64 65 1
15 66 1
66 67 1
15 68 1
68 69 1
69 15 1
15 21 1
21 69 1
69 70 1
70 71 1
72 38 1
38 73 1
73 74 1
74 63 1
63 38 1
38 72 1
72 75 1
75 72 1
72 15 1
67 69 1
69 76 1
72 67 1
71 76 1
67 55 1
55 76 1
15 77 1
77 15 1
15 51 1
51 78 1
78 79 1
79 80 1
80 81 1
81 82 1
82 83 1
83 55 1
55 38 1
38 59 1
59 38 1
38 71 1
71 84 1
84 15 1
15 38 1
38 65 1
15 85 1
85 86 1
86 87 1
87 88 1
88 65 1
15 89 1
89 15 1
90 15 1
90 91 1
91 92 1
92 93 1
93 94 1
95 92 1
92 96 1
96 97 1
97 98 1
98 99 1
99 98 1
98 100 1
100 98 1
101 98 1
101 102 1
102 98 1
98 103 1
103 99 1
99 104 1
104 102 1
102 37 1
37 102 1
102 95 1
95 102 1
95 105 1
105 76 1
76 106 1
106 76 1
76 107 1
107 76 1
76 95 1
95 108 1
108 95 1
95 94 1
94 98 1
98 109 1
110 112 1
112 110 1
114 102 1
102 115 1
115 116 1
116 115 1
115 102 1
102 117 1
117 118 1
118 63 1
63 119 1
119 120 1
120 102 1
102 63 1
63 121 1
121 102 1
123 122 1
102 18 1
18 124 1
124 125 1
125 65 1
15 126 1
126 127 1
127 128 1
128 102 1
15 129 1
129 122 1
122 15 1
15 130 1
130 61 1
61 102 1
102 131 1
131 102 1
102 132 1
132 129 1
129 60 1
60 133 1
133 134 1
134 123 1
123 135 1
135 136 1
136 123 1
123 137 1
137 63 1
63 138 1
138 139 1
139 140 1
140 65 1
65 141 1
141 142 1
142 122 1
122 143 1
143 144 1
144 145 1
145 146 1
146 71 1
67 147 1
147 148 1
148 149 1
149 15 1
67 150 1
150 151 1
151 152 1
152 148 1
148 67 1
67 154 1
154 155 1
155 26 1
26 156 1
156 157 1
157 156 1
156 158 1
158 156 1
156 159 1
122 160 1
160 161 1
161 156 1
156 162 1
162 15 1
55 122 1
122 163 1
163 164 1
164 165 1
165 122 1
122 65 1
65 165 1
165 166 1
166 165 1
165 159 1
122 167 1
167 168 1
168 169 1
169 123 1
