3 1 47
1 3 45
1 21 19
21 1 18
1 7 13
1 2 10
2 1 10
7 1 9
13 1 9
1 13 7
28 21 7
4 1 5
7 13 5
21 28 5
7 3 4
13 7 4
1 27 4
1 4 4
1 15 3
15 1 3
3 7 3
17 1 3
13 3 3
19 13 3
27 1 3
21 32 3
1 6 2
6 7 2
3 13 2
20 21 2
21 20 2
1 9 2
1 19 2
9 3 2
7 14 2
14 7 2
3 4 1
1 5 1
5 1 1
7 8 1
8 9 1
9 10 1
10 11 1
11 12 1
12 6 1
6 1 1
1 14 1
14 13 1
15 3 1
3 15 1
1 16 1
16 7 1
7 16 1
16 3 1
1 17 1
7 18 1
18 19 1
19 1 1
1 20 1
20 22 1
22 21 1
21 22 1
22 20 1
20 17 1
17 21 1
21 23 1
23 21 1
1 24 1
24 1 1
7 17 1
3 25 1
25 1 1
9 1 1
13 26 1
26 1 1
27 13 1
13 27 1
27 19 1
19 9 1
7 19 1
13 17 1
17 28 1
28 29 1
29 28 1
28 30 1
30 31 1
31 21 1
32 21 1
32 30 1
30 21 1
32 31 1
31 32 1
32 28 1
21 31 1
31 28 1
21 17 1
21 33 1
33 1 1
21 34 1
34 1 1
3 35 1
