5 6 13
8 7 11
3 1 10
9 11 10
7 6 10
7 9 9
3 5 9
11 9 9
9 7 8
9 3 8
8 1 8
1 8 8
1 3 7
6 5 7
7 8 7
5 3 7
10 2 7
6 7 7
2 3 6
3 2 6
4 5 6
2 10 6
9 1 6
1 9 6
3 9 5
6 9 5
8 10 5
10 1 5
2 8 4
10 8 4
1 10 4
3 8 4
4 3 4
8 3 4
1 2 3
6 4 3
5 7 3
9 4 3
3 7 3
8 2 3
5 8 3
1 5 3
5 4 2
4 9 2
4 8 2
7 3 2
2 4 2
8 4 2
10 6 2
10 5 2
7 10 2
6 8 2
3 4 2
2 1 1
1 4 1
8 5 1
4 10 1
2 6 1
11 7 1
4 1 1
1 11 1
6 10 1
10 3 1
3 10 1
6 1 1
5 10 1
9 2 1
1 6 1
8 9 1
11 1 1
9 8 1
7 5 1
7 4 1
6 2 1
4 11 1
11 3 1
2 11 1
11 4 1
7 1 1
1 12 1
