2 5 88
5 2 78
36 2 58
2 36 48
6 2 25
11 9 23
9 6 21
6 9 21
9 11 20
5 36 20
2 6 18
11 6 18
9 2 15
11 2 15
2 11 14
6 11 14
14 3 14
3 4 13
2 3 9
2 4 9
2 9 9
4 14 8
4 3 8
3 14 8
36 5 8
4 11 7
3 11 7
33 32 7
49 50 7
50 49 7
14 2 6
2 14 6
4 2 5
9 5 5
4 6 5
14 4 5
32 2 5
2 33 5
32 33 5
5 9 4
11 3 4
6 14 4
30 29 4
2 32 4
33 2 4
11 4 3
11 5 3
5 11 3
3 6 3
6 3 3
3 2 3
6 5 3
11 14 3
3 9 3
27 25 3
29 30 3
36 44 3
44 6 3
9 4 2
5 6 2
5 14 2
6 24 2
24 6 2
14 9 2
14 6 2
26 27 2
34 11 2
35 14 2
14 35 2
38 2 2
40 36 2
11 34 2
47 6 2
2 44 2
5 3 2
1 2 1
6 7 1
7 6 1
2 8 1
8 9 1
9 10 1
10 9 1
11 12 1
12 2 1
2 13 1
13 2 1
2 10 1
10 13 1
13 6 1
2 15 1
15 2 1
2 16 1
16 17 1
17 5 1
6 18 1
18 2 1
3 16 1
16 19 1
19 11 1
2 20 1
20 4 1
14 5 1
14 11 1
4 21 1
21 22 1
22 23 1
23 2 1
14 24 1
24 2 1
14 17 1
17 2 1
2 17 1
17 6 1
2 24 1
24 11 1
9 3 1
6 25 1
25 26 1
25 3 1
9 27 1
27 26 1
26 25 1
25 28 1
28 29 1
30 26 1
25 4 1
3 30 1
29 4 1
14 30 1
30 4 1
14 29 1
30 14 1
4 30 1
29 25 1
25 31 1
31 5 1
4 9 1
5 33 1
32 34 1
2 35 1
35 9 1
9 35 1
35 11 1
6 35 1
35 2 1
36 37 1
37 2 1
36 38 1
36 39 1
39 40 1
36 40 1
3 41 1
41 14 1
6 42 1
42 6 1
6 41 1
41 9 1
9 41 1
41 11 1
36 9 1
2 43 1
43 5 1
44 45 1
45 6 1
6 45 1
45 44 1
44 46 1
46 47 1
6 47 1
6 44 1
44 36 1
36 6 1
44 48 1
48 36 1
6 36 1
5 49 1
49 5 1
5 50 1
50 5 1
2 50 1
50 36 1
34 36 1
3 36 1
2 51 1
51 2 1
36 14 1
2 52 1
52 53 1
53 52 1
52 2 1
2 40 1
40 2 1
2 38 1
2 54 1
54 2 1
2 55 1
55 5 1
3 56 1
56 14 1
2 57 1
57 58 1
58 9 1
9 30 1
29 27 1
25 59 1
59 14 1
14 60 1
60 2 1
