7 4 68
4 7 67
7 23 20
23 7 19
4 5 16
5 4 16
21 22 16
23 4 16
4 23 16
22 21 14
5 7 11
7 5 10
4 6 9
7 8 9
8 7 9
7 17 8
4 21 8
6 4 7
17 7 7
21 4 7
22 23 7
4 17 6
17 4 6
23 21 6
19 7 5
23 22 5
16 4 4
4 16 4
7 19 4
21 7 4
12 4 3
4 12 3
4 14 3
15 7 3
7 15 3
7 21 3
21 23 3
6 7 2
7 11 2
11 7 2
14 4 2
7 22 2
23 17 2
17 23 2
21 5 2
1 2 1
2 3 1
3 4 1
7 9 1
9 10 1
10 7 1
8 4 1
7 12 1
12 3 1
3 13 1
13 7 1
14 15 1
15 8 1
7 16 1
16 7 1
4 18 1
18 4 1
4 19 1
4 20 1
20 7 1
7 20 1
20 4 1
17 21 1
22 4 1
22 7 1
17 24 1
24 17 1
7 25 1
25 7 1
5 26 1
26 4 1
7 27 1
27 4 1
4 27 1
27 7 1
23 5 1
5 23 1
