13 9 28
9 2 26
2 9 25
9 13 23
8 11 19
7 32 19
11 8 18
9 19 16
32 7 15
19 9 14
9 7 14
7 9 13
11 9 11
11 17 11
9 17 10
17 9 9
3 9 9
2 15 9
9 11 8
17 11 8
9 8 7
10 9 7
3 2 7
15 2 7
22 11 7
2 3 6
9 10 6
9 3 6
9 4 6
23 11 6
11 22 5
8 10 4
17 15 4
15 17 4
49 7 4
4 9 4
8 9 3
10 8 3
23 9 3
9 15 3
19 4 3
17 7 3
7 15 3
32 9 3
9 32 3
15 11 3
7 49 3
17 23 3
11 23 3
7 13 3
7 23 3
4 64 3
64 4 3
4 5 2
4 3 2
11 10 2
9 20 2
20 9 2
11 13 2
9 23 2
19 15 2
15 19 2
13 15 2
15 13 2
9 27 2
5 9 2
9 28 2
32 15 2
32 11 2
19 11 2
11 19 2
15 7 2
37 9 2
8 13 2
10 7 2
4 19 2
13 7 2
10 2 2
19 3 2
13 67 2
67 9 2
67 2 2
1 2 1
3 4 1
5 6 1
6 4 1
3 7 1
7 8 1
10 11 1
10 12 1
12 13 1
13 14 1
14 15 1
15 9 1
9 16 1
16 9 1
17 8 1
8 17 1
9 18 1
18 19 1
8 21 1
21 11 1
9 22 1
22 9 1
9 24 1
24 9 1
15 25 1
25 15 1
19 13 1
15 26 1
26 9 1
27 9 1
27 13 1
13 19 1
9 5 1
8 3 1
28 2 1
9 29 1
29 9 1
19 8 1
8 30 1
30 8 1
15 31 1
31 15 1
7 17 1
7 3 1
3 32 1
2 7 1
7 33 1
33 7 1
7 34 1
34 32 1
11 35 1
35 19 1
19 7 1
15 36 1
36 7 1
32 3 1
2 37 1
37 2 1
2 38 1
38 13 1
11 15 1
15 10 1
32 39 1
39 9 1
28 3 1
2 40 1
40 2 1
2 41 1
41 9 1
17 42 1
42 43 1
43 44 1
44 37 1
9 45 1
45 9 1
11 4 1
4 11 1
13 17 1
7 10 1
9 46 1
46 7 1
7 4 1
4 28 1
28 7 1
3 13 1
2 47 1
47 9 1
9 48 1
48 32 1
19 49 1
32 50 1
50 9 1
13 2 1
15 51 1
51 52 1
52 22 1
22 17 1
10 13 1
13 53 1
53 54 1
54 13 1
23 22 1
9 55 1
55 13 1
13 56 1
56 7 1
23 17 1
17 22 1
7 57 1
57 13 1
11 58 1
58 9 1
2 59 1
59 32 1
32 2 1
2 60 1
60 8 1
8 61 1
61 7 1
13 10 1
9 62 1
62 10 1
2 63 1
63 19 1
3 19 1
4 2 1
2 4 1
4 7 1
13 4 1
4 13 1
9 37 1
9 65 1
65 66 1
66 9 1
13 3 1
2 13 1
9 67 1
15 67 1
15 68 1
68 17 1
17 10 1
9 69 1
