4 17 61
17 4 58
4 5 50
5 4 44
27 4 35
4 24 34
24 4 34
4 27 32
21 4 28
4 21 27
23 4 27
4 23 26
21 5 20
5 21 20
32 4 19
6 4 18
4 32 17
4 6 16
4 7 15
22 4 15
7 4 13
4 22 13
7 5 12
17 23 11
22 17 11
5 7 10
23 17 10
17 27 10
4 8 9
8 4 8
17 22 8
5 31 8
27 17 7
17 32 7
32 17 7
31 5 7
9 4 6
4 9 5
16 4 5
5 6 4
4 16 4
24 17 4
38 4 4
4 38 4
17 5 3
20 4 3
4 20 3
17 21 3
6 21 3
22 23 3
23 24 3
24 23 3
4 28 3
28 4 3
23 32 3
32 24 3
17 24 3
6 5 2
4 11 2
4 14 2
14 4 2
21 17 2
5 24 2
24 22 2
21 6 2
23 22 2
32 23 2
24 32 2
5 17 2
4 31 2
5 27 2
32 31 2
28 32 2
32 28 2
27 24 2
39 4 2
4 40 2
40 4 2
1 2 1
2 3 1
3 4 1
8 9 1
5 10 1
10 4 1
11 4 1
11 5 1
6 12 1
12 13 1
13 6 1
7 12 1
12 4 1
4 15 1
15 16 1
5 18 1
18 4 1
4 19 1
19 20 1
20 21 1
5 22 1
21 22 1
4 25 1
25 4 1
4 26 1
26 22 1
21 23 1
21 7 1
7 6 1
23 27 1
27 22 1
7 16 1
16 5 1
17 7 1
5 29 1
29 5 1
5 30 1
30 5 1
31 21 1
24 5 1
27 32 1
31 23 1
31 29 1
29 7 1
5 32 1
31 32 1
23 33 1
33 32 1
31 4 1
24 27 1
4 34 1
34 35 1
35 4 1
4 36 1
36 37 1
37 38 1
38 39 1
4 39 1
