6 17 106
17 6 88
21 6 30
6 21 24
20 6 22
7 6 20
6 20 20
22 6 19
17 20 18
6 18 17
18 6 16
20 17 16
6 7 15
6 22 15
6 8 13
20 22 13
17 22 13
9 6 10
8 6 10
22 20 10
22 17 10
17 21 9
6 9 8
22 21 8
21 20 8
30 6 8
6 30 8
2 3 7
6 10 7
10 6 7
3 2 6
17 18 6
20 21 6
1 2 5
18 17 5
21 22 5
8 7 4
17 25 4
5 6 3
15 6 3
18 20 3
21 17 3
25 17 3
27 7 3
29 6 3
6 29 3
2 1 2
3 1 2
6 5 2
7 9 2
6 11 2
11 6 2
13 6 2
6 15 2
19 6 2
25 6 2
25 22 2
7 26 2
1 3 1
2 4 1
4 1 1
2 5 1
5 7 1
7 5 1
6 12 1
12 13 1
6 13 1
6 14 1
14 7 1
6 16 1
16 6 1
17 19 1
6 19 1
18 7 1
17 8 1
17 23 1
23 6 1
20 18 1
18 9 1
9 8 1
8 18 1
21 18 1
17 24 1
24 21 1
21 25 1
6 25 1
22 25 1
17 9 1
9 7 1
20 7 1
26 7 1
26 27 1
7 27 1
7 28 1
28 27 1
7 29 1
29 30 1
30 15 1
