6 2 86
2 6 84
2 19 59
19 2 59
40 2 39
2 40 38
3 2 36
2 3 32
6 19 27
19 6 25
2 39 6
39 2 6
2 48 6
2 28 4
28 2 4
42 39 4
39 42 4
2 10 3
10 2 3
16 6 3
19 39 3
48 19 3
48 2 3
39 6 3
6 39 3
6 3 2
6 16 2
6 17 2
17 6 2
24 19 2
42 2 2
40 42 2
19 40 2
39 19 2
2 47 2
1 2 1
2 4 1
4 2 1
2 5 1
5 6 1
6 7 1
7 2 1
2 8 1
8 2 1
2 9 1
9 6 1
10 6 1
2 11 1
11 6 1
6 11 1
11 12 1
12 6 1
6 13 1
13 6 1
2 14 1
14 6 1
6 10 1
2 15 1
15 6 1
2 16 1
2 18 1
18 2 1
6 20 1
20 6 1
2 21 1
21 22 1
22 19 1
2 23 1
23 24 1
19 24 1
2 25 1
25 26 1
26 2 1
19 27 1
27 19 1
19 3 1
19 29 1
29 30 1
30 31 1
31 32 1
32 19 1
19 8 1
8 33 1
33 34 1
34 2 1
2 35 1
35 2 1
19 36 1
36 2 1
2 37 1
37 2 1
19 23 1
23 19 1
2 38 1
38 2 1
40 41 1
41 40 1
2 42 1
39 24 1
24 39 1
39 43 1
43 44 1
44 39 1
39 40 1
42 40 1
40 45 1
45 40 1
19 45 1
45 19 1
2 46 1
46 47 1
47 2 1
40 19 1
19 48 1
48 49 1
49 2 1
19 50 1
50 19 1
19 51 1
51 47 1
47 52 1
52 2 1
47 6 1
40 6 1
6 40 1
2 53 1
53 54 1
54 2 1
47 55 1
55 39 1
39 56 1
56 2 1
2 57 1
57 3 1
2 58 1
58 6 1
