5 1 88
1 5 85
18 1 59
1 18 57
1 39 38
39 1 38
2 1 36
1 2 32
5 18 27
18 5 26
1 50 7
1 38 6
38 1 6
43 38 5
38 43 4
50 18 4
1 8 3
8 1 3
1 27 3
27 1 3
18 38 3
38 44 3
50 1 3
38 5 3
5 38 3
5 2 2
5 15 2
15 5 2
5 16 2
16 5 2
22 18 2
43 1 2
39 43 2
18 39 2
38 18 2
1 49 2
65 5 2
1 3 1
3 1 1
1 4 1
4 5 1
1 6 1
6 5 1
5 7 1
7 1 1
8 5 1
1 9 1
9 5 1
5 9 1
9 10 1
10 5 1
5 11 1
11 5 1
1 12 1
12 5 1
5 8 1
1 13 1
13 5 1
1 14 1
14 5 1
1 17 1
17 1 1
5 19 1
19 5 1
1 20 1
20 18 1
1 21 1
21 22 1
18 22 1
1 23 1
23 24 1
24 1 1
18 25 1
25 18 1
18 26 1
26 18 1
18 2 1
1 28 1
28 1 1
18 29 1
29 30 1
30 31 1
31 18 1
5 32 1
32 33 1
33 1 1
1 34 1
34 1 1
18 35 1
35 1 1
1 36 1
36 1 1
18 21 1
21 18 1
1 37 1
37 1 1
39 40 1
40 39 1
39 41 1
41 1 1
1 42 1
42 18 1
1 43 1
44 43 1
44 38 1
44 45 1
45 38 1
38 46 1
46 39 1
43 39 1
39 47 1
47 39 1
18 47 1
47 18 1
1 48 1
48 49 1
49 1 1
39 18 1
18 50 1
50 51 1
51 1 1
18 52 1
52 18 1
18 53 1
53 49 1
49 54 1
54 1 1
49 5 1
39 5 1
5 39 1
1 55 1
55 56 1
56 1 1
49 57 1
57 38 1
38 58 1
58 1 1
1 59 1
59 60 1
60 1 1
1 61 1
61 2 1
1 62 1
62 5 1
1 63 1
63 1 1
5 64 1
64 65 1
5 66 1
66 65 1
1 67 1
67 5 1
