6 47 103
47 6 103
23 6 25
5 6 24
6 5 24
6 23 24
56 47 17
60 6 17
6 60 15
47 60 15
47 56 14
6 2 13
60 47 13
2 6 11
5 4 8
4 6 8
6 4 7
47 43 7
43 47 7
47 57 7
57 47 7
47 63 7
90 91 7
91 90 7
6 22 6
22 6 6
25 6 6
2 35 6
35 62 6
62 35 6
60 65 6
4 5 5
6 25 5
63 47 5
6 63 5
67 60 5
65 60 5
6 7 4
7 6 4
35 2 4
35 6 4
6 35 4
63 6 4
47 65 4
68 65 4
67 65 4
65 47 4
68 6 4
35 47 4
5 87 4
95 92 4
92 95 4
26 6 3
6 51 3
51 6 3
6 56 3
65 67 3
65 68 3
6 67 3
6 65 3
6 68 3
60 68 3
87 5 3
8 5 2
21 6 2
6 26 2
44 6 2
6 44 2
47 35 2
35 56 2
6 57 2
47 58 2
58 47 2
35 57 2
65 6 2
68 47 2
67 6 2
60 67 2
47 5 2
4 23 2
23 5 2
65 35 2
6 88 2
88 6 2
90 92 2
1 2 1
2 3 1
3 2 1
2 4 1
6 8 1
5 9 1
9 6 1
6 10 1
10 11 1
11 6 1
6 12 1
12 6 1
6 13 1
13 14 1
14 15 1
15 16 1
16 17 1
17 18 1
18 19 1
19 20 1
20 21 1
22 21 1
21 22 1
6 21 1
6 24 1
24 6 1
6 27 1
27 26 1
6 28 1
28 26 1
26 29 1
29 30 1
30 6 1
6 31 1
31 6 1
6 32 1
32 33 1
33 6 1
2 34 1
34 6 1
6 34 1
34 2 1
2 36 1
36 37 1
37 35 1
35 37 1
37 36 1
36 38 1
38 2 1
6 39 1
39 40 1
40 8 1
5 41 1
41 42 1
42 43 1
43 44 1
44 43 1
43 6 1
6 45 1
45 6 1
6 46 1
46 6 1
47 48 1
48 47 1
47 49 1
49 47 1
47 50 1
50 6 1
47 52 1
52 6 1
47 53 1
53 54 1
54 47 1
6 55 1
55 47 1
56 35 1
56 6 1
57 6 1
47 59 1
59 47 1
47 25 1
60 61 1
61 8 1
8 60 1
57 35 1
57 60 1
60 63 1
63 60 1
63 64 1
64 47 1
63 65 1
65 66 1
66 67 1
67 47 1
47 68 1
68 69 1
69 70 1
70 71 1
71 68 1
65 72 1
72 67 1
68 73 1
73 6 1
67 72 1
72 60 1
65 63 1
63 68 1
60 69 1
69 47 1
6 74 1
74 23 1
23 65 1
57 63 1
47 75 1
75 76 1
76 47 1
63 72 1
72 57 1
57 76 1
76 6 1
47 77 1
77 5 1
5 74 1
74 6 1
47 23 1
5 47 1
5 63 1
63 5 1
63 67 1
65 69 1
69 35 1
35 60 1
43 60 1
60 43 1
60 35 1
35 78 1
78 65 1
35 36 1
36 78 1
78 60 1
60 57 1
57 67 1
68 67 1
6 79 1
79 36 1
36 35 1
4 80 1
80 6 1
65 81 1
81 76 1
76 68 1
60 72 1
72 6 1
6 78 1
78 82 1
82 83 1
83 60 1
6 84 1
84 6 1
62 6 1
6 62 1
62 85 1
85 62 1
6 86 1
86 5 1
5 83 1
83 35 1
35 5 1
87 6 1
6 89 1
89 90 1
92 90 1
92 93 1
93 94 1
94 95 1
92 96 1
96 97 1
97 92 1
