50 7 48
7 50 47
7 23 19
23 7 18
28 7 18
7 28 18
22 7 16
7 9 13
7 22 13
9 7 9
7 37 9
37 7 9
23 22 8
7 8 7
10 7 7
7 20 7
20 7 7
7 21 7
21 7 7
22 23 7
35 7 7
44 7 7
7 35 6
7 44 6
8 7 5
8 10 5
7 10 5
33 7 5
38 37 5
37 38 5
40 7 5
3 4 4
28 33 4
7 40 4
7 41 4
4 3 3
7 33 3
41 7 3
42 7 3
10 8 3
47 7 3
7 17 2
17 7 2
7 25 2
28 29 2
29 28 2
33 28 2
7 38 2
7 42 2
7 47 2
1 2 1
2 3 1
4 5 1
5 2 1
2 6 1
6 7 1
9 8 1
9 11 1
11 12 1
12 13 1
13 7 1
7 14 1
14 15 1
15 16 1
16 7 1
17 18 1
18 17 1
9 19 1
19 7 1
7 3 1
3 7 1
9 22 1
7 24 1
24 23 1
25 22 1
22 26 1
26 22 1
23 27 1
27 9 1
10 9 1
9 28 1
7 6 1
6 28 1
7 29 1
29 7 1
28 30 1
30 7 1
7 31 1
31 28 1
28 32 1
32 28 1
7 34 1
34 35 1
7 36 1
36 7 1
38 7 1
38 9 1
9 39 1
39 40 1
41 42 1
9 43 1
43 7 1
7 43 1
43 44 1
7 45 1
45 7 1
25 46 1
46 22 1
23 47 1
7 48 1
48 23 1
22 9 1
7 49 1
49 7 1
50 51 1
51 50 1
7 52 1
52 50 1
9 10 1
8 53 1
53 54 1
54 55 1
55 7 1
7 56 1
56 57 1
57 7 1
7 58 1
58 7 1
7 59 1
