10 1 73
1 10 66
1 7 40
7 1 39
1 8 30
1 16 30
8 1 28
16 1 28
14 1 25
1 14 24
29 10 15
13 1 13
1 13 13
10 29 12
8 10 8
7 10 8
10 8 7
10 7 7
30 1 5
50 47 5
20 8 5
1 2 4
2 1 4
16 17 4
7 18 4
20 16 4
1 30 4
31 32 4
47 7 4
7 47 4
47 50 4
8 20 4
32 55 4
55 32 4
17 16 3
18 7 3
1 20 3
16 20 3
21 7 3
7 21 3
32 31 3
8 54 3
54 8 3
1 4 2
4 1 2
14 10 2
10 13 2
13 10 2
16 7 2
17 1 2
23 1 2
20 1 2
32 14 2
1 29 2
37 32 2
29 1 2
47 48 2
48 47 2
48 7 2
7 50 2
50 14 2
8 29 2
14 8 2
1 3 1
3 1 1
1 5 1
5 6 1
6 7 1
7 8 1
1 9 1
9 1 1
1 11 1
11 10 1
10 12 1
12 13 1
13 14 1
1 15 1
15 1 1
1 17 1
18 16 1
1 19 1
19 1 1
16 19 1
19 16 1
10 16 1
16 10 1
10 21 1
21 1 1
20 22 1
22 23 1
16 24 1
24 25 1
25 1 1
1 26 1
26 27 1
27 20 1
10 28 1
28 1 1
1 28 1
28 10 1
7 30 1
1 31 1
1 33 1
33 20 1
20 34 1
34 29 1
7 35 1
35 1 1
1 36 1
36 37 1
14 32 1
32 37 1
32 1 1
1 38 1
38 14 1
1 39 1
39 29 1
8 40 1
40 8 1
1 41 1
41 10 1
10 42 1
42 1 1
1 43 1
43 10 1
10 44 1
44 1 1
1 45 1
45 46 1
46 47 1
47 20 1
1 47 1
1 48 1
47 1 1
1 49 1
49 50 1
47 51 1
51 50 1
47 52 1
52 14 1
1 50 1
50 48 1
50 53 1
53 50 1
50 7 1
14 47 1
14 50 1
50 1 1
8 16 1
16 32 1
32 54 1
54 10 1
10 56 1
56 10 1
8 14 1
8 7 1
29 57 1
57 1 1
1 58 1
58 57 1
57 10 1
1 59 1
59 1 1
10 23 1
