43 9 27
9 43 27
12 9 25
9 12 21
3 4 14
4 3 10
4 5 8
36 16 7
12 38 7
14 12 7
38 36 7
36 44 7
49 16 7
16 49 7
9 16 7
16 9 7
5 4 6
9 36 6
38 34 6
34 38 6
9 10 5
38 12 5
36 38 5
15 14 5
14 13 5
3 5 4
5 7 4
5 3 4
13 14 4
11 34 4
12 15 4
12 14 4
36 9 4
38 42 4
29 44 4
44 29 4
38 9 4
38 44 4
44 38 4
16 38 4
44 55 4
4 6 3
7 5 3
6 4 3
12 13 3
37 38 3
38 33 3
13 12 3
16 36 3
34 44 3
10 9 3
9 38 3
44 36 3
42 36 3
55 44 3
44 34 3
6 3 2
4 7 2
7 3 2
33 11 2
35 36 2
15 13 2
9 14 2
10 12 2
34 16 2
36 12 2
13 36 2
11 38 2
34 42 2
36 15 2
34 36 2
45 36 2
36 34 2
15 12 2
13 15 2
22 27 2
27 13 2
16 10 2
10 16 2
36 22 2
44 56 2
34 11 2
33 38 2
1 2 1
2 1 1
1 3 1
5 6 1
7 6 1
3 7 1
7 4 1
3 8 1
8 3 1
4 9 1
10 11 1
11 12 1
14 15 1
15 16 1
16 17 1
17 18 1
18 19 1
19 20 1
20 21 1
21 22 1
22 23 1
23 24 1
24 25 1
25 26 1
26 27 1
27 28 1
28 29 1
29 30 1
30 31 1
31 32 1
32 1 1
1 33 1
11 33 1
34 35 1
16 37 1
33 12 1
9 39 1
39 12 1
38 15 1
36 40 1
40 13 1
13 37 1
37 36 1
13 9 1
38 10 1
12 11 1
34 37 1
37 9 1
12 41 1
41 37 1
16 19 1
19 16 1
42 12 1
9 20 1
20 11 1
42 34 1
38 13 1
14 10 1
10 15 1
15 10 1
12 36 1
36 43 1
43 36 1
12 34 1
36 29 1
29 45 1
38 37 1
37 35 1
35 33 1
33 42 1
42 33 1
33 15 1
9 22 1
22 34 1
44 46 1
46 42 1
42 46 1
46 44 1
44 22 1
13 27 1
15 22 1
27 22 1
22 47 1
47 22 1
22 14 1
14 9 1
14 38 1
42 38 1
10 38 1
44 48 1
48 9 1
12 48 1
48 12 1
10 36 1
36 37 1
37 49 1
49 36 1
42 50 1
50 16 1
16 25 1
25 16 1
38 25 1
25 51 1
51 16 1
36 52 1
52 36 1
36 10 1
36 19 1
19 36 1
38 16 1
16 12 1
16 34 1
16 14 1
14 25 1
25 36 1
16 53 1
53 22 1
22 54 1
54 34 1
34 22 1
22 36 1
22 52 1
52 16 1
36 35 1
55 37 1
56 44 1
56 34 1
34 9 1
9 34 1
44 10 1
10 44 1
36 57 1
57 36 1
34 41 1
41 34 1
34 58 1
58 38 1
38 59 1
59 40 1
40 34 1
16 42 1
22 60 1
60 44 1
44 60 1
60 11 1
34 33 1
33 45 1
9 61 1
61 62 1
62 17 1
17 63 1
63 64 1
64 19 1
19 65 1
65 66 1
66 67 1
67 68 1
68 69 1
69 70 1
70 71 1
