11 24 183
24 11 180
9 11 54
11 9 52
32 24 29
24 32 28
24 25 27
25 24 25
24 9 20
9 24 20
24 28 14
28 24 13
55 9 12
9 55 10
59 60 9
9 10 7
33 11 7
60 59 7
11 59 7
10 9 6
32 11 6
24 33 6
59 48 6
26 9 5
9 26 5
59 11 5
48 59 5
26 25 4
11 3 4
24 30 4
30 24 4
11 32 4
11 33 4
24 34 4
44 9 4
33 24 4
9 67 4
67 9 4
17 18 3
19 11 3
25 26 3
11 28 3
28 11 3
34 24 3
36 24 3
37 38 3
9 44 3
54 24 3
24 54 3
9 56 3
56 9 3
24 48 3
48 24 3
25 63 3
11 55 3
55 11 3
8 2 2
2 8 2
8 9 2
11 19 2
20 21 2
23 24 2
24 27 2
27 24 2
3 11 2
3 24 2
24 36 2
38 37 2
39 9 2
9 40 2
40 9 2
11 36 2
36 17 2
11 43 2
43 24 2
59 24 2
63 24 2
60 11 2
63 25 2
75 55 2
1 2 1
2 3 1
3 2 1
2 4 1
4 2 1
2 5 1
5 6 1
6 7 1
7 3 1
3 8 1
9 8 1
9 12 1
12 9 1
9 13 1
13 9 1
10 11 1
11 14 1
14 9 1
9 15 1
15 16 1
16 17 1
18 19 1
11 20 1
21 20 1
21 22 1
22 23 1
24 21 1
21 27 1
27 23 1
11 29 1
29 11 1
24 31 1
31 32 1
34 35 1
35 24 1
34 28 1
28 35 1
35 34 1
24 37 1
38 26 1
26 39 1
9 39 1
11 41 1
41 42 1
42 32 1
17 24 1
43 11 1
24 43 1
24 17 1
18 36 1
18 24 1
24 26 1
25 9 1
9 45 1
45 9 1
9 46 1
46 9 1
9 47 1
47 9 1
9 33 1
11 48 1
48 49 1
49 11 1
24 50 1
50 33 1
33 51 1
51 24 1
28 32 1
11 52 1
52 24 1
24 53 1
53 11 1
11 54 1
54 11 1
9 57 1
57 58 1
58 11 1
24 59 1
24 61 1
61 11 1
24 62 1
62 24 1
24 63 1
25 59 1
25 64 1
64 25 1
63 27 1
27 25 1
25 27 1
27 40 1
40 44 1
24 57 1
57 9 1
24 65 1
65 63 1
9 66 1
66 55 1
11 67 1
67 11 1
24 10 1
10 24 1
24 68 1
68 69 1
69 70 1
70 24 1
24 71 1
71 9 1
9 72 1
72 9 1
9 73 1
73 74 1
74 9 1
9 75 1
55 75 1
55 71 1
71 14 1
14 55 1
9 59 1
