25 4 23
4 21 19
20 4 17
4 20 16
21 4 16
4 25 15
25 26 13
26 21 13
21 26 13
20 21 12
26 25 12
4 22 11
3 8 10
21 20 10
31 4 10
4 31 10
21 25 10
8 3 9
22 4 9
22 20 8
22 21 7
22 32 7
26 22 7
21 22 6
21 14 6
14 21 6
32 22 6
26 4 6
4 26 6
25 21 6
5 4 5
14 15 5
26 20 5
14 4 5
4 5 4
15 14 4
20 26 4
20 25 4
22 26 4
67 28 4
3 4 3
4 28 3
20 22 3
43 28 3
25 22 3
49 28 3
28 49 3
28 43 3
22 25 3
28 21 3
22 14 3
25 14 3
66 8 3
68 20 3
20 68 3
8 4 3
4 3 2
21 28 2
28 29 2
20 34 2
4 48 2
48 4 2
25 51 2
51 4 2
14 22 2
20 14 2
21 5 2
14 25 2
4 14 2
4 51 2
8 66 2
28 67 2
28 14 2
76 20 2
1 2 1
2 3 1
4 6 1
6 7 1
7 8 1
8 9 1
9 3 1
8 10 1
10 11 1
11 12 1
12 13 1
13 14 1
15 16 1
16 17 1
17 18 1
18 19 1
19 4 1
22 23 1
23 24 1
24 23 1
23 25 1
26 27 1
27 22 1
29 4 1
28 20 1
4 30 1
30 31 1
28 22 1
32 33 1
33 20 1
34 35 1
35 8 1
8 15 1
15 20 1
4 36 1
36 4 1
26 37 1
37 38 1
38 39 1
39 11 1
11 26 1
26 40 1
40 41 1
41 28 1
28 42 1
42 43 1
43 42 1
42 28 1
28 26 1
26 43 1
28 44 1
44 22 1
21 45 1
45 4 1
25 46 1
46 26 1
20 47 1
47 26 1
4 49 1
49 4 1
4 50 1
50 25 1
51 25 1
25 52 1
52 25 1
4 53 1
53 5 1
5 31 1
31 36 1
36 49 1
29 28 1
43 22 1
25 20 1
20 54 1
54 25 1
4 55 1
55 25 1
4 56 1
56 14 1
14 20 1
21 57 1
57 26 1
26 41 1
41 22 1
31 58 1
58 4 1
4 59 1
59 22 1
14 60 1
60 21 1
21 37 1
37 25 1
51 26 1
25 61 1
61 51 1
51 14 1
14 62 1
62 20 1
20 8 1
8 20 1
34 20 1
20 63 1
63 61 1
61 21 1
21 64 1
64 8 1
8 21 1
25 6 1
6 4 1
14 26 1
21 65 1
65 66 1
8 40 1
40 67 1
49 68 1
68 25 1
4 29 1
29 25 1
25 50 1
50 69 1
69 67 1
67 29 1
29 67 1
28 70 1
70 71 1
71 21 1
4 72 1
72 73 1
73 25 1
25 28 1
4 74 1
74 63 1
63 20 1
4 75 1
75 76 1
4 8 1
20 77 1
77 34 1
34 26 1
22 28 1
14 8 1
8 34 1
34 76 1
20 28 1
22 78 1
78 11 1
11 79 1
79 21 1
14 80 1
80 25 1
21 81 1
81 14 1
25 8 1
4 82 1
82 8 1
5 25 1
4 83 1
83 25 1
25 31 1
31 30 1
30 4 1
