11 4 97
4 11 82
83 4 58
4 83 57
4 19 39
4 3 36
19 4 33
3 4 32
15 4 32
4 15 30
4 10 22
10 4 20
9 4 16
23 4 15
4 28 15
4 9 14
4 23 14
28 4 14
3 11 12
31 4 11
75 4 10
24 4 9
4 30 9
22 4 9
4 75 9
4 6 8
4 31 8
4 22 8
4 60 8
4 77 8
77 4 8
6 4 7
55 4 7
4 16 7
4 67 7
18 19 6
19 18 6
4 20 6
20 4 6
16 4 6
4 24 6
30 4 6
33 4 6
4 55 6
60 4 6
67 4 6
4 72 6
87 4 6
4 87 6
15 16 5
23 24 5
4 46 5
46 4 5
19 15 5
46 24 5
24 46 5
15 68 5
68 15 5
72 4 5
4 79 5
79 4 5
3 15 4
18 4 4
4 18 4
24 23 4
27 6 4
6 27 4
4 43 4
19 30 4
62 19 4
3 9 3
10 11 3
19 3 3
22 15 3
3 29 3
6 31 3
4 33 3
4 45 3
15 19 3
6 3 3
15 6 3
4 48 3
48 4 3
30 11 3
30 3 3
4 53 3
19 62 3
16 22 3
15 3 3
4 73 3
74 11 3
36 4 3
83 84 3
84 83 3
77 83 3
83 77 3
77 3 3
4 86 3
7 4 2
16 15 2
15 22 2
3 6 2
28 6 2
6 28 2
29 4 2
31 6 2
31 33 2
4 37 2
43 4 2
45 4 2
30 15 2
6 15 2
48 15 2
10 46 2
46 10 2
3 50 2
16 3 2
54 4 2
53 4 2
43 3 2
30 23 2
23 11 2
3 30 2
3 31 2
4 63 2
63 31 2
3 19 2
45 3 2
11 72 2
72 74 2
11 74 2
74 3 2
73 11 2
60 78 2
78 60 2
60 77 2
3 83 2
83 3 2
86 4 2
3 24 2
24 83 2
83 24 2
1 2 1
2 3 1
4 5 1
5 6 1
6 7 1
4 8 1
8 3 1
4 7 1
11 10 1
4 12 1
12 13 1
13 3 1
3 13 1
13 4 1
4 13 1
13 14 1
14 3 1
16 17 1
17 13 1
13 15 1
15 18 1
18 3 1
9 20 1
20 21 1
21 4 1
23 10 1
4 25 1
25 10 1
10 26 1
26 23 1
23 27 1
27 28 1
28 27 1
27 29 1
29 27 1
27 7 1
7 27 1
6 29 1
29 6 1
4 27 1
27 3 1
27 4 1
3 28 1
28 3 1
4 29 1
29 3 1
28 30 1
31 32 1
32 4 1
4 32 1
32 10 1
10 33 1
33 31 1
4 34 1
34 3 1
3 35 1
35 36 1
36 37 1
37 33 1
37 4 1
37 38 1
38 4 1
4 39 1
39 40 1
40 3 1
30 41 1
41 30 1
30 42 1
42 4 1
11 44 1
44 4 1
19 46 1
46 19 1
15 47 1
47 46 1
16 23 1
6 48 1
3 48 1
15 30 1
3 10 1
11 43 1
11 49 1
49 13 1
13 30 1
11 30 1
11 31 1
31 11 1
30 31 1
50 16 1
29 23 1
11 23 1
45 23 1
23 51 1
51 11 1
4 52 1
52 4 1
53 54 1
4 54 1
4 56 1
56 57 1
57 56 1
56 55 1
4 58 1
58 46 1
46 11 1
3 46 1
46 30 1
30 59 1
59 60 1
60 61 1
61 4 1
3 62 1
31 63 1
63 11 1
4 64 1
64 3 1
3 65 1
65 3 1
3 43 1
30 36 1
36 45 1
3 45 1
4 66 1
66 23 1
43 15 1
15 14 1
14 4 1
67 16 1
22 16 1
10 3 1
4 69 1
69 4 1
3 38 1
38 3 1
11 70 1
70 11 1
11 71 1
71 11 1
73 72 1
4 74 1
72 14 1
14 75 1
3 76 1
76 3 1
72 73 1
11 36 1
77 60 1
60 46 1
46 77 1
77 46 1
46 60 1
60 79 1
79 3 1
3 79 1
79 43 1
43 80 1
80 3 1
30 81 1
81 30 1
30 82 1
82 46 1
46 3 1
4 36 1
3 81 1
81 77 1
9 77 1
77 85 1
85 3 1
3 77 1
86 36 1
43 30 1
23 30 1
30 24 1
23 3 1
24 87 1
87 30 1
30 83 1
83 88 1
88 83 1
50 3 1
46 89 1
89 11 1
4 50 1
50 4 1
4 90 1
90 4 1
4 91 1
91 4 1
73 75 1
75 73 1
73 4 1
11 3 1
11 15 1
15 55 1
55 54 1
54 23 1
23 60 1
60 23 1
23 9 1
10 29 1
29 92 1
92 46 1
46 23 1
11 6 1
6 24 1
24 6 1
