1 8 43
8 1 43
6 1 34
1 6 33
8 6 12
6 8 12
1 2 8
2 1 8
8 17 7
17 8 7
1 3 6
3 1 6
8 18 6
18 8 5
16 8 4
14 1 4
2 3 3
8 13 3
14 8 3
8 16 3
3 4 2
5 2 2
1 7 2
7 1 2
4 1 2
13 14 2
1 16 2
8 19 2
1 19 2
19 8 2
21 18 2
18 22 2
18 14 2
14 22 2
22 14 2
4 3 1
3 5 1
2 5 1
3 2 1
8 9 1
9 8 1
1 10 1
10 11 1
11 4 1
1 12 1
12 6 1
8 15 1
15 1 1
17 1 1
1 17 1
18 1 1
19 18 1
1 20 1
20 8 1
1 21 1
21 10 1
10 21 1
21 8 1
19 1 1
8 3 1
3 8 1
8 21 1
18 21 1
22 21 1
21 22 1
22 8 1
13 8 1
8 14 1
14 2 1
16 14 1
1 14 1
1 23 1
23 14 1
8 24 1
24 14 1
22 18 1
14 18 1
1 5 1
5 1 1
