9 14 33
14 9 31
27 9 18
9 27 16
56 9 12
9 56 11
9 41 10
41 9 10
9 42 8
42 9 8
14 32 5
22 21 4
9 29 4
32 14 4
9 44 4
50 9 4
9 50 4
34 9 4
12 9 3
16 9 3
21 22 3
29 9 3
14 34 3
44 9 3
22 49 3
9 34 3
9 11 2
14 12 2
14 16 2
9 12 2
9 16 2
9 46 2
47 9 2
49 22 2
50 14 2
14 50 2
34 14 2
1 2 1
2 3 1
3 4 1
4 5 1
5 6 1
6 4 1
4 7 1
7 8 1
8 9 1
9 10 1
10 9 1
11 9 1
11 12 1
12 13 1
13 14 1
12 15 1
15 12 1
16 14 1
14 17 1
17 14 1
12 14 1
9 18 1
18 16 1
16 18 1
18 19 1
19 9 1
9 20 1
20 21 1
21 23 1
23 22 1
21 24 1
24 25 1
25 26 1
26 9 1
9 28 1
28 29 1
29 14 1
29 30 1
30 31 1
31 14 1
14 33 1
33 9 1
34 35 1
35 34 1
34 36 1
36 34 1
34 37 1
37 35 1
35 38 1
38 34 1
34 39 1
39 34 1
34 40 1
40 9 1
32 24 1
24 9 1
9 43 1
43 27 1
44 27 1
9 45 1
45 9 1
46 47 1
9 47 1
46 9 1
9 48 1
48 14 1
14 22 1
49 50 1
50 51 1
51 34 1
9 52 1
52 53 1
53 52 1
52 54 1
54 55 1
55 14 1
14 55 1
55 56 1
56 14 1
14 57 1
57 56 1
9 57 1
57 9 1
9 58 1
