2 3 46
3 2 44
3 17 28
17 3 26
2 17 26
3 18 26
3 23 25
18 3 25
11 2 24
17 2 24
4 3 22
2 11 22
23 3 22
3 4 21
17 18 21
22 3 19
2 22 18
3 22 18
18 17 18
22 2 17
17 22 12
16 3 11
3 16 11
22 17 11
23 2 11
2 23 10
3 15 9
11 3 9
15 11 8
20 2 8
15 3 8
11 15 7
2 20 7
41 2 7
12 2 6
2 21 6
3 11 6
3 7 5
7 11 5
21 20 5
23 15 5
23 41 5
41 3 5
3 41 5
2 41 5
22 41 5
7 3 4
15 23 4
21 2 4
20 21 4
20 3 4
3 20 4
3 32 4
41 23 4
41 22 4
42 18 4
18 36 4
2 4 3
8 3 3
9 7 3
18 2 3
2 12 3
22 23 3
4 22 3
23 4 3
2 27 3
27 2 3
18 42 3
18 43 3
36 18 3
4 2 2
3 8 2
3 9 2
11 9 2
11 7 2
16 17 2
18 16 2
17 4 2
2 19 2
22 4 2
4 23 2
3 21 2
21 3 2
32 3 2
2 18 2
34 3 2
36 3 2
9 3 2
39 11 2
42 17 2
17 42 2
43 18 2
45 18 2
36 17 2
48 49 2
49 48 2
3 50 2
50 3 2
1 2 1
3 5 1
5 4 1
4 6 1
6 7 1
7 8 1
7 10 1
10 7 1
9 11 1
11 10 1
10 11 1
7 9 1
7 12 1
2 13 1
13 14 1
14 13 1
13 15 1
2 16 1
17 16 1
16 18 1
19 2 1
19 12 1
3 24 1
24 3 1
17 23 1
3 25 1
25 3 1
23 17 1
3 26 1
26 3 1
15 22 1
23 22 1
15 4 1
4 15 1
15 2 1
16 2 1
21 11 1
4 28 1
28 29 1
29 3 1
3 28 1
28 3 1
3 29 1
29 30 1
30 31 1
31 32 1
32 33 1
33 32 1
32 20 1
20 32 1
32 12 1
12 3 1
3 12 1
12 18 1
18 12 1
17 34 1
34 17 1
3 34 1
32 34 1
4 35 1
35 17 1
4 17 1
32 36 1
18 9 1
23 37 1
37 38 1
38 39 1
11 39 1
3 40 1
40 11 1
2 42 1
18 4 1
18 44 1
44 18 1
18 45 1
17 36 1
17 45 1
43 36 1
18 46 1
46 18 1
17 47 1
47 48 1
48 18 1
18 49 1
49 3 1
3 51 1
51 3 1
11 52 1
52 3 1
2 53 1
53 7 1
