12 2 154
2 12 149
7 12 78
12 7 75
7 2 75
7 8 74
2 7 73
8 7 72
2 19 56
19 2 54
8 9 48
9 8 47
7 14 25
14 7 24
18 2 22
2 18 21
2 9 19
9 2 18
18 19 15
19 18 15
7 9 10
9 7 10
12 28 9
28 12 9
72 2 6
2 52 5
52 2 5
9 58 5
12 68 5
68 7 5
2 24 4
42 7 4
58 2 4
68 12 4
2 72 4
7 68 4
18 12 4
24 2 3
7 42 3
22 2 3
12 72 3
12 18 3
14 15 2
15 7 2
19 22 2
26 18 2
18 26 2
2 42 2
2 51 2
51 2 2
58 9 2
60 9 2
66 2 2
2 67 2
76 12 2
56 22 2
7 79 2
1 2 1
2 3 1
3 4 1
4 5 1
5 6 1
6 7 1
9 10 1
10 7 1
7 11 1
11 7 1
12 8 1
7 13 1
13 14 1
8 16 1
16 17 1
17 18 1
2 20 1
20 21 1
21 18 1
22 18 1
2 23 1
23 18 1
24 25 1
25 26 1
26 24 1
24 26 1
26 2 1
2 26 1
26 27 1
27 7 1
12 29 1
29 12 1
2 30 1
30 12 1
2 31 1
31 7 1
2 32 1
32 33 1
33 7 1
7 33 1
33 34 1
34 12 1
2 35 1
35 7 1
2 36 1
36 2 1
7 37 1
37 38 1
38 2 1
18 22 1
22 19 1
18 39 1
39 7 1
8 40 1
40 8 1
8 41 1
41 8 1
42 2 1
2 43 1
43 8 1
8 43 1
43 44 1
44 7 1
7 45 1
45 46 1
46 2 1
12 47 1
47 7 1
12 48 1
48 12 1
12 49 1
49 12 1
2 22 1
19 12 1
12 50 1
50 12 1
2 53 1
53 12 1
12 54 1
54 7 1
2 55 1
55 2 1
2 8 1
8 2 1
7 56 1
56 57 1
57 2 1
2 58 1
2 59 1
59 9 1
2 60 1
19 61 1
61 62 1
62 19 1
19 63 1
63 19 1
7 64 1
64 60 1
9 65 1
65 22 1
22 66 1
2 66 1
67 19 1
19 67 1
67 12 1
9 69 1
69 2 1
12 70 1
70 71 1
71 72 1
2 73 1
73 2 1
67 8 1
8 74 1
74 9 1
8 75 1
75 8 1
8 67 1
67 76 1
12 76 1
72 12 1
72 77 1
77 7 1
7 77 1
77 8 1
8 56 1
2 56 1
56 7 1
7 19 1
19 56 1
56 55 1
55 7 1
7 78 1
78 7 1
79 56 1
22 12 1
79 7 1
2 80 1
80 2 1
2 81 1
81 12 1
