11 1 154
1 11 149
6 11 78
11 6 75
6 1 75
6 7 74
1 6 73
7 6 72
1 18 56
18 1 54
7 8 48
8 7 47
6 13 25
13 6 24
17 1 22
1 17 21
1 8 19
8 1 18
17 18 15
18 17 15
6 8 10
8 6 10
11 27 9
27 11 9
71 1 6
1 51 5
51 1 5
8 57 5
11 67 5
67 6 5
1 23 4
41 6 4
57 1 4
67 11 4
1 71 4
6 67 4
17 11 4
23 1 3
6 41 3
21 1 3
11 71 3
11 17 3
13 14 2
14 6 2
18 21 2
25 17 2
17 25 2
1 41 2
1 50 2
50 1 2
57 8 2
59 8 2
65 1 2
1 66 2
75 11 2
55 21 2
6 78 2
1 2 1
2 3 1
3 4 1
4 5 1
5 6 1
8 9 1
9 6 1
6 10 1
10 6 1
11 7 1
6 12 1
12 13 1
7 15 1
15 16 1
16 17 1
1 19 1
19 20 1
20 17 1
21 17 1
1 22 1
22 17 1
23 24 1
24 25 1
25 23 1
23 25 1
25 1 1
1 25 1
25 26 1
26 6 1
11 28 1
28 11 1
1 29 1
29 11 1
1 30 1
30 6 1
1 31 1
31 32 1
32 6 1
6 32 1
32 33 1
33 11 1
1 34 1
34 6 1
1 35 1
35 1 1
6 36 1
36 37 1
37 1 1
17 21 1
21 18 1
17 38 1
38 6 1
7 39 1
39 7 1
7 40 1
40 7 1
41 1 1
1 42 1
42 7 1
7 42 1
42 43 1
43 6 1
6 44 1
44 45 1
45 1 1
11 46 1
46 6 1
11 47 1
47 11 1
11 48 1
48 11 1
1 21 1
18 11 1
11 49 1
49 11 1
1 52 1
52 11 1
11 53 1
53 6 1
1 54 1
54 1 1
1 7 1
7 1 1
6 55 1
55 56 1
56 1 1
1 57 1
1 58 1
58 8 1
1 59 1
18 60 1
60 61 1
61 18 1
18 62 1
62 18 1
6 63 1
63 59 1
8 64 1
64 21 1
21 65 1
1 65 1
66 18 1
18 66 1
66 11 1
8 68 1
68 1 1
11 69 1
69 70 1
70 71 1
1 72 1
72 1 1
66 7 1
7 73 1
73 8 1
7 74 1
74 7 1
7 66 1
66 75 1
11 75 1
71 11 1
71 76 1
76 6 1
6 76 1
76 7 1
7 55 1
1 55 1
55 6 1
6 18 1
18 55 1
55 54 1
54 6 1
6 77 1
77 6 1
78 55 1
21 11 1
78 6 1
1 79 1
79 1 1
1 80 1
80 11 1
