12 7 133
7 12 129
7 6 31
6 7 31
7 55 28
7 15 26
15 7 26
55 7 26
61 7 16
7 61 16
5 7 13
7 40 13
7 5 12
40 7 12
7 47 10
7 31 9
9 7 8
7 18 8
25 7 8
31 7 8
7 25 8
50 7 8
2 7 7
7 9 7
18 7 7
7 32 7
7 2 7
47 7 7
7 50 7
19 7 6
32 7 6
7 19 5
22 7 5
21 7 5
2 4 5
3 7 5
45 7 5
7 45 5
2 3 4
6 2 4
3 2 4
7 22 4
34 7 4
7 3 4
4 2 4
1 2 3
5 6 3
2 1 3
11 12 3
7 14 3
14 7 3
11 7 3
7 21 3
7 11 3
29 28 3
31 32 3
33 34 3
4 1 3
1 4 3
47 15 3
52 7 3
59 7 3
63 64 3
64 63 3
4 5 2
2 5 2
1 3 2
22 21 2
12 22 2
28 7 2
7 29 2
32 31 2
33 7 2
7 33 2
7 17 2
5 1 2
1 7 2
47 31 2
31 33 2
48 15 2
15 47 2
7 57 2
57 7 2
7 58 2
7 59 2
7 34 2
3 4 1
7 8 1
8 5 1
3 1 1
1 6 1
7 10 1
10 11 1
7 13 1
13 7 1
12 9 1
15 11 1
7 16 1
16 17 1
17 12 1
18 19 1
7 20 1
20 19 1
19 20 1
20 21 1
21 22 1
7 23 1
23 11 1
11 9 1
7 24 1
24 25 1
7 26 1
26 9 1
9 11 1
22 12 1
9 22 1
12 27 1
27 7 1
7 28 1
7 30 1
30 7 1
28 29 1
29 7 1
12 29 1
28 12 1
32 33 1
25 35 1
35 25 1
25 36 1
36 12 1
12 37 1
37 12 1
7 38 1
38 7 1
17 7 1
17 39 1
39 5 1
7 1 1
5 3 1
7 4 1
4 7 1
2 40 1
40 6 1
6 40 1
40 4 1
4 40 1
40 12 1
12 5 1
40 41 1
41 42 1
42 7 1
7 42 1
42 43 1
43 44 1
44 45 1
45 44 1
44 46 1
46 44 1
44 7 1
45 47 1
47 45 1
7 48 1
48 7 1
7 49 1
49 7 1
34 47 1
34 31 1
31 50 1
47 48 1
15 48 1
7 51 1
51 52 1
25 52 1
7 53 1
53 25 1
7 52 1
12 54 1
54 7 1
7 54 1
54 12 1
12 55 1
55 2 1
2 55 1
55 12 1
7 56 1
56 12 1
58 7 1
58 59 1
15 60 1
60 7 1
32 36 1
36 61 1
61 62 1
62 61 1
61 25 1
25 63 1
63 12 1
55 9 1
9 65 1
65 12 1
12 66 1
66 34 1
55 36 1
