22 3 154
3 22 153
4 3 67
3 4 66
18 3 31
3 18 30
3 15 18
3 11 17
15 3 17
11 3 16
3 6 12
5 4 10
6 3 9
18 22 9
6 5 8
22 18 8
28 22 8
9 3 7
3 9 7
22 28 7
4 5 6
22 20 6
32 22 6
22 32 6
37 22 6
22 37 6
5 6 5
12 3 5
5 3 5
3 5 5
20 18 5
3 20 5
20 22 5
3 7 4
7 3 4
3 12 4
18 20 4
3 23 4
23 3 4
28 29 4
2 3 3
4 2 3
8 3 3
6 4 3
11 12 3
12 11 3
13 3 3
20 3 3
29 28 3
3 2 2
2 4 2
4 7 2
3 8 2
9 10 2
10 9 2
3 13 2
15 13 2
25 26 2
26 25 2
31 28 2
28 31 2
22 35 2
35 22 2
1 2 1
2 6 1
7 5 1
7 4 1
8 9 1
11 9 1
9 11 1
4 6 1
4 12 1
11 8 1
9 13 1
3 14 1
14 12 1
12 15 1
13 6 1
13 16 1
16 17 1
17 3 1
18 19 1
19 18 1
20 21 1
21 18 1
4 18 1
18 24 1
24 3 1
3 25 1
25 27 1
27 20 1
20 28 1
29 22 1
22 30 1
30 28 1
29 31 1
3 32 1
22 15 1
15 32 1
32 29 1
31 22 1
22 33 1
33 22 1
22 8 1
3 28 1
28 3 1
20 34 1
34 22 1
35 36 1
36 37 1
32 35 1
22 23 1
23 22 1
37 3 1
3 38 1
38 3 1
22 39 1
39 22 1
4 40 1
40 3 1
18 23 1
23 18 1
