25 4 116
4 25 116
5 4 50
4 5 47
4 21 25
21 4 23
11 4 16
4 11 14
4 19 10
25 35 10
19 4 9
35 25 9
22 4 7
5 6 6
6 5 6
22 25 6
25 22 6
25 28 6
28 25 6
5 7 5
4 13 5
13 4 5
21 22 5
4 22 5
21 25 5
25 21 5
7 5 4
12 4 4
4 7 4
31 32 4
32 31 4
4 8 3
8 4 3
4 12 3
13 11 3
6 4 3
39 25 3
5 3 2
3 5 2
4 9 2
10 12 2
12 11 2
11 12 2
11 13 2
7 6 2
4 6 2
7 4 2
4 24 2
27 4 2
34 28 2
28 34 2
25 39 2
24 25 2
1 2 1
2 3 1
3 4 1
7 3 1
3 6 1
6 7 1
8 5 1
6 8 1
8 6 1
7 8 1
9 10 1
10 11 1
4 10 1
12 10 1
12 14 1
14 5 1
6 15 1
15 16 1
16 17 1
17 15 1
15 5 1
7 16 1
16 5 1
4 14 1
14 18 1
18 13 1
13 14 1
14 13 1
19 20 1
20 4 1
4 18 1
18 7 1
9 21 1
22 23 1
23 21 1
24 4 1
24 21 1
22 5 1
5 21 1
4 26 1
26 23 1
23 22 1
21 27 1
28 22 1
22 29 1
29 4 1
22 28 1
28 30 1
30 28 1
28 31 1
31 33 1
33 28 1
28 29 1
29 34 1
25 29 1
29 28 1
34 25 1
25 36 1
36 25 1
25 27 1
4 28 1
28 4 1
4 29 1
29 37 1
37 12 1
4 32 1
32 4 1
22 38 1
38 39 1
39 35 1
35 38 1
38 35 1
25 24 1
35 24 1
35 39 1
