17 5 89
5 17 85
35 5 71
5 35 70
5 22 26
22 5 25
21 17 20
5 25 17
17 21 17
25 5 15
16 5 12
5 16 11
20 17 11
5 27 11
44 5 11
20 5 10
5 20 10
5 44 9
31 5 8
17 20 7
27 5 7
5 31 6
17 45 6
5 21 6
21 5 6
35 27 6
24 5 5
27 35 5
5 24 4
25 35 4
45 17 4
35 31 4
25 24 3
35 25 3
31 44 3
31 35 3
5 51 3
27 36 3
35 83 3
83 35 3
17 16 2
16 20 2
26 5 2
27 25 2
25 27 2
5 33 2
35 36 2
36 5 2
17 39 2
5 41 2
45 20 2
48 49 2
49 48 2
51 31 2
51 5 2
35 17 2
27 17 2
17 35 2
68 27 2
36 27 2
1 2 1
2 3 1
3 4 1
4 5 1
5 6 1
6 7 1
7 5 1
5 8 1
8 9 1
9 10 1
10 11 1
11 5 1
5 11 1
11 12 1
12 5 1
5 12 1
12 13 1
13 5 1
5 14 1
14 15 1
15 16 1
17 18 1
18 17 1
5 19 1
19 16 1
16 17 1
20 21 1
17 22 1
22 23 1
23 24 1
24 25 1
24 26 1
27 28 1
28 5 1
25 29 1
29 30 1
30 5 1
25 31 1
31 25 1
17 32 1
32 5 1
33 5 1
33 25 1
5 34 1
34 5 1
36 35 1
5 37 1
37 5 1
5 26 1
5 38 1
38 17 1
39 5 1
17 40 1
40 17 1
41 21 1
17 42 1
42 21 1
21 43 1
43 17 1
22 44 1
22 17 1
20 46 1
46 47 1
47 31 1
35 48 1
48 35 1
31 50 1
50 31 1
44 31 1
44 51 1
5 52 1
52 5 1
5 53 1
53 22 1
5 54 1
54 5 1
5 55 1
55 22 1
22 35 1
5 56 1
56 5 1
5 57 1
57 5 1
41 43 1
43 41 1
41 17 1
5 58 1
58 59 1
59 17 1
5 60 1
60 5 1
45 5 1
5 45 1
39 20 1
17 61 1
61 27 1
27 62 1
62 17 1
5 63 1
63 35 1
24 35 1
5 64 1
64 20 1
17 65 1
65 21 1
5 66 1
66 5 1
5 39 1
39 67 1
67 5 1
35 68 1
35 69 1
69 35 1
35 40 1
40 35 1
27 70 1
70 35 1
5 36 1
36 71 1
71 35 1
35 72 1
72 25 1
27 68 1
27 73 1
73 5 1
27 74 1
74 35 1
35 39 1
39 75 1
75 76 1
76 74 1
74 77 1
77 27 1
35 78 1
78 79 1
79 35 1
5 80 1
80 35 1
35 81 1
81 77 1
77 82 1
82 5 1
