19 6 96
6 19 89
6 33 76
33 6 75
6 24 33
24 6 31
23 19 20
6 27 20
27 6 18
19 23 18
18 6 13
6 29 13
6 18 12
43 6 12
22 6 11
6 22 11
22 19 10
29 6 10
6 43 10
44 6 8
6 23 7
6 44 6
19 45 6
29 33 6
33 29 6
19 22 5
26 6 5
6 26 5
23 6 5
27 33 4
44 43 4
45 19 4
33 44 4
29 34 4
85 33 4
27 26 3
33 27 3
44 33 3
6 52 3
33 19 3
29 19 3
34 29 3
33 85 3
19 18 2
6 21 2
21 22 2
28 6 2
29 27 2
27 29 2
6 31 2
33 34 2
34 6 2
6 36 2
19 37 2
6 39 2
45 22 2
49 50 2
50 49 2
44 51 2
51 44 2
43 44 2
52 44 2
52 6 2
26 33 2
65 29 2
76 33 2
1 2 1
2 3 1
3 4 1
4 5 1
5 6 1
6 7 1
7 8 1
8 6 1
6 9 1
9 10 1
10 11 1
11 12 1
12 6 1
6 12 1
12 13 1
13 6 1
6 13 1
13 14 1
14 6 1
6 15 1
15 6 1
6 16 1
16 17 1
17 18 1
19 20 1
20 19 1
21 6 1
18 21 1
18 19 1
19 24 1
24 25 1
25 26 1
26 27 1
26 28 1
27 19 1
19 30 1
30 6 1
31 6 1
31 27 1
6 32 1
32 6 1
34 33 1
6 35 1
35 6 1
6 28 1
36 19 1
37 6 1
6 38 1
38 6 1
39 23 1
19 40 1
40 23 1
23 41 1
41 19 1
24 42 1
42 43 1
24 19 1
6 46 1
46 47 1
47 33 1
33 48 1
48 44 1
33 49 1
49 33 1
43 52 1
6 53 1
53 6 1
6 54 1
54 24 1
24 33 1
6 50 1
50 6 1
39 41 1
41 55 1
55 39 1
39 19 1
19 56 1
56 57 1
57 19 1
6 58 1
58 6 1
45 6 1
6 45 1
23 37 1
37 19 1
37 22 1
6 59 1
59 60 1
60 29 1
19 29 1
19 42 1
42 6 1
6 61 1
61 22 1
19 62 1
62 23 1
23 63 1
63 6 1
36 6 1
6 37 1
37 64 1
64 6 1
33 65 1
33 66 1
66 33 1
29 67 1
67 33 1
22 68 1
68 6 1
6 34 1
34 69 1
69 33 1
33 70 1
70 27 1
29 65 1
34 71 1
71 72 1
72 34 1
29 73 1
73 6 1
29 74 1
74 75 1
75 76 1
33 76 1
33 37 1
37 77 1
77 75 1
75 78 1
78 75 1
75 79 1
79 29 1
33 80 1
80 81 1
81 33 1
6 82 1
82 33 1
33 83 1
83 79 1
79 84 1
84 6 1
19 39 1
39 85 1
33 86 1
