4 7 36
7 4 33
17 8 18
8 17 18
4 8 13
8 4 11
21 4 11
8 7 10
4 21 10
7 8 8
7 26 8
8 10 7
26 7 7
7 9 6
9 4 5
10 8 5
4 13 5
7 21 5
9 7 4
13 4 4
17 7 4
2 4 4
12 11 4
3 1 3
1 3 3
4 5 3
4 9 3
10 11 3
11 10 3
11 8 3
2 13 3
13 2 3
7 17 3
4 2 3
21 7 3
5 4 2
8 9 2
9 8 2
7 10 2
8 11 2
10 12 2
4 15 2
16 7 2
7 16 2
16 17 2
18 15 2
15 18 2
17 4 2
15 17 2
12 8 2
8 12 2
11 12 2
7 25 2
25 7 2
1 2 1
2 3 1
3 4 1
5 6 1
6 7 1
12 10 1
10 2 1
13 14 1
14 7 1
15 16 1
7 18 1
18 19 1
19 17 1
17 20 1
20 17 1
17 16 1
17 15 1
7 22 1
22 4 1
7 13 1
13 7 1
21 8 1
10 23 1
23 10 1
10 7 1
10 17 1
17 24 1
24 4 1
4 12 1
11 7 1
26 4 1
