20 19 45
31 19 40
19 20 37
19 31 35
39 19 31
45 19 29
19 39 28
19 45 28
19 81 22
81 19 21
19 28 18
19 60 17
28 19 16
60 19 16
65 19 16
19 65 16
20 45 15
45 20 15
41 19 12
19 94 12
94 19 12
19 21 10
19 61 9
20 39 8
19 120 8
27 28 7
28 27 7
50 19 7
61 19 7
39 20 7
120 19 7
19 41 6
83 117 6
117 83 6
21 19 5
21 29 5
19 48 5
39 60 5
56 60 5
32 64 5
64 32 5
70 45 5
36 39 5
39 36 5
111 114 5
114 111 5
33 128 5
19 134 5
41 39 4
48 19 4
19 50 4
60 39 4
60 56 4
77 39 4
39 77 4
19 95 4
19 103 4
123 81 4
81 123 4
134 19 4
29 21 3
21 20 3
60 61 3
19 56 3
39 41 3
45 70 3
60 20 3
31 83 3
61 20 3
81 98 3
103 19 3
20 108 3
108 20 3
111 25 3
25 111 3
83 31 3
123 127 3
128 33 3
26 25 2
27 21 2
19 27 2
36 37 2
31 50 2
19 34 2
52 53 2
53 52 2
56 19 2
57 56 2
56 39 2
60 41 2
61 60 2
32 12 2
12 32 2
65 66 2
66 65 2
39 45 2
45 71 2
73 60 2
56 76 2
76 56 2
21 31 2
20 41 2
41 60 2
61 39 2
84 19 2
86 31 2
20 60 2
95 39 2
95 19 2
98 81 2
113 111 2
56 116 2
19 83 2
127 123 2
19 123 2
123 133 2
133 19 2
147 76 2
76 147 2
1 2 1
2 3 1
3 1 1
1 4 1
4 1 1
1 5 1
5 1 1
1 6 1
6 1 1
1 7 1
7 1 1
1 8 1
8 9 1
9 10 1
10 11 1
11 12 1
12 13 1
13 1 1
1 14 1
14 1 1
1 15 1
15 8 1
8 16 1
16 17 1
17 16 1
16 18 1
18 19 1
19 22 1
22 23 1
23 19 1
21 24 1
24 25 1
25 26 1
25 21 1
21 26 1
25 27 1
29 30 1
30 20 1
29 31 1
31 29 1
21 32 1
32 21 1
29 33 1
33 31 1
31 34 1
34 35 1
35 36 1
37 36 1
37 19 1
19 38 1
38 20 1
39 21 1
21 40 1
40 41 1
39 42 1
42 21 1
21 43 1
43 44 1
44 20 1
20 21 1
19 46 1
46 21 1
21 47 1
47 48 1
48 49 1
49 19 1
48 31 1
34 31 1
19 51 1
51 31 1
19 52 1
53 19 1
19 53 1
52 54 1
54 31 1
27 20 1
19 55 1
55 56 1
19 57 1
56 57 1
19 58 1
58 19 1
28 59 1
59 27 1
27 19 1
28 39 1
19 24 1
24 19 1
19 62 1
62 60 1
60 63 1
63 19 1
19 32 1
32 65 1
65 1 1
1 67 1
67 68 1
68 19 1
45 56 1
56 45 1
45 69 1
69 70 1
71 70 1
71 45 1
19 72 1
72 60 1
60 73 1
60 74 1
74 73 1
20 25 1
25 73 1
73 19 1
60 75 1
75 60 1
60 77 1
77 60 1
19 78 1
78 20 1
19 79 1
79 80 1
80 19 1
81 82 1
82 31 1
83 82 1
82 50 1
50 31 1
81 39 1
39 81 1
19 84 1
20 85 1
85 20 1
45 86 1
19 86 1
31 45 1
45 87 1
87 19 1
20 88 1
88 89 1
89 90 1
90 91 1
91 92 1
92 93 1
93 39 1
39 84 1
60 84 1
84 41 1
19 36 1
36 19 1
19 15 1
15 19 1
19 96 1
96 97 1
97 81 1
98 21 1
21 99 1
99 100 1
100 101 1
101 19 1
19 102 1
102 19 1
103 104 1
104 105 1
105 103 1
103 106 1
106 19 1
19 107 1
107 20 1
108 19 1
19 108 1
19 109 1
109 54 1
54 110 1
110 54 1
54 20 1
20 111 1
111 112 1
112 113 1
111 105 1
105 111 1
111 113 1
111 19 1
19 111 1
111 20 1
39 61 1
56 92 1
92 56 1
60 115 1
115 60 1
116 56 1
116 32 1
32 56 1
34 83 1
117 21 1
21 117 1
31 117 1
117 31 1
83 19 1
83 50 1
19 118 1
118 119 1
119 120 1
120 61 1
61 41 1
31 41 1
21 41 1
31 21 1
21 121 1
121 21 1
19 122 1
122 123 1
123 124 1
124 123 1
123 125 1
125 126 1
126 123 1
123 65 1
65 60 1
60 123 1
127 61 1
60 127 1
127 33 1
128 129 1
129 81 1
81 33 1
128 61 1
61 128 1
128 123 1
123 19 1
19 128 1
128 19 1
19 130 1
130 131 1
131 19 1
19 132 1
132 19 1
134 135 1
135 136 1
136 134 1
134 137 1
137 19 1
19 138 1
138 19 1
19 139 1
139 19 1
19 140 1
140 19 1
19 141 1
141 19 1
19 142 1
142 143 1
143 19 1
19 144 1
144 19 1
56 145 1
145 19 1
19 146 1
146 19 1
19 147 1
147 56 1
19 148 1
148 149 1
149 150 1
150 19 1
19 151 1
151 152 1
152 19 1
