1 21 140
21 1 136
14 1 61
1 14 60
13 1 57
1 13 55
2 1 42
1 2 40
1 4 34
4 1 31
4 5 12
21 29 9
5 4 8
29 21 8
29 1 6
29 4 6
8 1 5
1 8 5
1 20 5
20 1 5
1 29 5
4 29 5
21 13 4
1 7 3
12 1 3
1 15 3
5 1 3
4 21 3
21 4 3
35 1 3
1 35 3
7 1 2
8 7 2
15 1 2
17 1 2
1 12 2
4 17 2
13 14 2
13 21 2
1 28 2
1 33 2
4 35 2
1 3 1
3 4 1
5 3 1
3 6 1
6 3 1
3 2 1
7 8 1
7 9 1
9 8 1
7 10 1
10 11 1
11 12 1
5 2 1
2 4 1
4 13 1
4 14 1
15 16 1
16 15 1
15 17 1
12 4 1
1 5 1
1 18 1
18 1 1
1 19 1
19 1 1
1 22 1
22 1 1
14 13 1
21 15 1
15 23 1
23 1 1
1 24 1
24 25 1
25 6 1
6 13 1
21 26 1
26 14 1
14 27 1
27 1 1
14 21 1
13 4 1
17 4 1
28 1 1
28 12 1
1 30 1
30 1 1
1 31 1
31 1 1
1 32 1
32 29 1
13 27 1
27 21 1
33 1 1
33 13 1
21 34 1
34 13 1
13 34 1
34 6 1
6 1 1
35 4 1
35 2 1
1 36 1
