6 1 30
1 6 30
1 7 29
7 1 28
23 1 25
1 23 21
3 1 20
1 3 19
10 1 11
1 10 11
1 13 10
1 20 10
13 1 9
20 1 9
1 35 8
35 1 8
54 11 7
11 54 7
1 9 5
19 11 5
11 19 5
1 31 5
31 1 5
45 23 5
9 1 4
11 1 4
28 11 4
11 28 4
33 1 4
48 23 4
12 1 3
1 12 3
12 10 3
42 26 3
23 45 3
1 45 3
47 48 3
10 11 2
16 1 2
1 16 2
1 19 2
19 1 2
24 1 2
1 33 2
1 32 2
26 42 2
45 1 2
1 48 2
1 2 1
2 1 1
1 4 1
4 5 1
5 1 1
1 5 1
5 6 1
7 8 1
8 1 1
9 10 1
11 10 1
10 12 1
1 14 1
14 7 1
1 15 1
15 6 1
6 15 1
15 1 1
13 16 1
16 17 1
17 16 1
16 18 1
18 1 1
6 3 1
20 7 1
7 21 1
21 20 1
20 22 1
22 1 1
6 11 1
7 12 1
10 24 1
1 25 1
25 24 1
11 26 1
26 1 1
10 27 1
27 28 1
11 29 1
29 11 1
28 1 1
1 30 1
30 1 1
23 32 1
32 33 1
1 34 1
34 33 1
1 36 1
36 35 1
35 37 1
37 38 1
38 39 1
39 40 1
40 37 1
37 39 1
39 6 1
1 41 1
41 11 1
32 11 1
32 12 1
1 26 1
26 11 1
11 42 1
26 12 1
12 43 1
43 1 1
1 44 1
44 45 1
1 46 1
46 1 1
23 47 1
48 47 1
1 49 1
49 48 1
48 49 1
49 47 1
1 11 1
11 50 1
50 1 1
1 51 1
51 23 1
23 11 1
1 52 1
52 53 1
53 54 1
54 55 1
