3 6 22
6 3 21
7 1 21
3 4 17
1 7 17
4 3 16
8 3 15
3 8 13
3 10 10
10 3 9
11 3 9
3 11 9
18 3 9
28 3 9
3 28 9
7 3 8
3 7 8
3 18 8
22 3 6
9 8 5
3 22 5
33 7 5
3 23 4
23 3 4
3 9 4
1 33 4
47 1 4
1 47 4
8 9 3
3 13 3
26 3 3
3 26 3
7 33 3
33 1 3
34 35 3
35 7 3
3 5 2
13 3 2
6 18 2
11 7 2
20 3 2
3 20 2
1 2 1
2 3 1
5 3 1
5 6 1
6 7 1
7 8 1
10 11 1
3 12 1
12 3 1
13 14 1
14 13 1
13 15 1
15 9 1
8 16 1
16 17 1
17 3 1
3 17 1
17 16 1
16 3 1
18 6 1
4 19 1
19 3 1
7 20 1
20 6 1
6 21 1
21 22 1
7 24 1
24 18 1
18 25 1
25 18 1
18 26 1
26 27 1
27 28 1
28 29 1
29 30 1
30 29 1
29 11 1
9 3 1
9 31 1
31 3 1
9 32 1
32 33 1
7 34 1
35 34 1
1 36 1
36 35 1
1 35 1
35 36 1
36 34 1
1 37 1
37 38 1
38 39 1
39 40 1
40 41 1
41 42 1
42 43 1
43 44 1
44 1 1
1 45 1
45 46 1
46 47 1
47 48 1
