19 18 30
18 19 29
23 19 3
43 42 3
39 19 2
42 44 2
44 42 2
42 39 2
39 43 2
51 18 2
1 2 1
2 3 1
3 4 1
4 5 1
5 6 1
6 7 1
7 6 1
6 8 1
8 7 1
7 9 1
9 10 1
10 11 1
11 12 1
12 13 1
13 14 1
14 15 1
15 16 1
16 17 1
17 18 1
18 20 1
20 18 1
19 21 1
21 19 1
18 22 1
22 23 1
19 24 1
24 23 1
18 24 1
24 25 1
25 26 1
26 23 1
19 27 1
27 25 1
25 19 1
18 28 1
28 29 1
29 28 1
28 18 1
18 30 1
30 18 1
18 31 1
31 32 1
32 18 1
18 33 1
33 18 1
19 34 1
34 19 1
18 35 1
35 36 1
36 18 1
18 37 1
37 19 1
19 38 1
38 39 1
19 40 1
40 41 1
41 39 1
39 38 1
38 42 1
42 43 1
42 45 1
45 43 1
43 39 1
39 46 1
46 39 1
39 18 1
18 39 1
19 47 1
47 48 1
48 49 1
49 19 1
19 50 1
50 51 1
19 52 1
52 53 1
53 38 1
38 51 1
18 38 1
38 54 1
54 55 1
