3 19 21
19 3 20
24 3 19
3 24 18
23 3 11
3 23 10
17 18 7
18 17 7
17 3 7
5 3 6
3 17 6
24 23 5
3 5 4
3 25 4
24 31 4
4 5 3
3 22 3
22 3 3
25 3 3
23 29 3
29 24 3
32 24 3
35 17 3
5 4 2
6 7 2
7 3 2
3 8 2
8 5 2
3 9 2
9 10 2
17 19 2
21 3 2
23 24 2
31 24 2
31 32 2
3 35 2
17 35 2
37 3 2
3 38 2
1 2 1
2 3 1
3 4 1
5 6 1
7 6 1
3 6 1
6 3 1
3 7 1
8 3 1
9 3 1
10 9 1
10 5 1
5 8 1
3 11 1
11 3 1
3 12 1
12 8 1
8 13 1
13 14 1
14 15 1
15 3 1
3 16 1
16 17 1
19 20 1
20 21 1
22 19 1
19 23 1
24 25 1
25 24 1
25 26 1
26 27 1
27 28 1
28 24 1
24 28 1
28 30 1
30 24 1
31 33 1
33 32 1
24 33 1
33 24 1
24 32 1
3 18 1
18 3 1
19 34 1
34 21 1
21 17 1
19 18 1
18 22 1
17 36 1
36 35 1
35 36 1
36 17 1
35 37 1
38 37 1
38 3 1
3 21 1
3 31 1
32 3 1
