57 7 21
7 57 20
7 102 18
102 7 17
7 18 12
18 7 12
92 7 12
66 7 11
7 92 11
7 66 10
63 7 7
7 63 6
40 38 4
38 40 4
7 37 4
7 59 4
59 7 4
14 7 3
7 14 3
37 7 3
61 62 3
6 7 2
7 8 2
8 7 2
14 15 2
15 14 2
52 7 2
57 8 2
8 57 2
62 61 2
62 63 2
7 62 2
66 90 2
91 92 2
1 2 1
2 3 1
3 4 1
4 5 1
5 6 1
7 9 1
9 7 1
7 10 1
10 11 1
11 12 1
12 13 1
13 14 1
14 8 1
8 14 1
14 16 1
16 7 1
14 17 1
17 14 1
7 19 1
19 20 1
20 21 1
21 22 1
22 23 1
23 24 1
24 25 1
25 26 1
26 27 1
27 28 1
28 27 1
27 29 1
29 30 1
30 31 1
31 7 1
7 32 1
32 33 1
33 34 1
34 35 1
35 36 1
36 37 1
37 38 1
38 35 1
35 37 1
37 39 1
39 37 1
37 40 1
40 35 1
35 7 1
37 8 1
8 41 1
41 7 1
7 42 1
42 43 1
43 44 1
44 45 1
45 46 1
46 47 1
47 48 1
48 47 1
47 49 1
49 50 1
50 51 1
51 7 1
7 52 1
8 21 1
21 53 1
53 54 1
54 23 1
23 29 1
29 55 1
55 56 1
56 57 1
57 58 1
58 57 1
59 10 1
10 59 1
7 29 1
29 7 1
7 60 1
60 7 1
7 61 1
63 52 1
7 64 1
64 65 1
65 66 1
66 67 1
67 68 1
68 66 1
66 69 1
69 63 1
63 70 1
70 71 1
71 23 1
23 62 1
62 72 1
72 73 1
73 63 1
62 74 1
74 62 1
62 75 1
75 76 1
76 7 1
7 77 1
77 76 1
76 78 1
78 79 1
79 80 1
80 8 1
7 81 1
81 7 1
7 82 1
82 83 1
83 7 1
7 84 1
84 63 1
63 62 1
63 85 1
85 62 1
62 7 1
62 86 1
86 87 1
87 88 1
88 7 1
66 89 1
89 66 1
90 66 1
90 91 1
92 91 1
92 66 1
7 93 1
93 66 1
66 94 1
94 66 1
92 95 1
95 96 1
96 97 1
97 98 1
98 7 1
7 99 1
99 100 1
100 92 1
7 89 1
89 92 1
92 101 1
101 92 1
102 6 1
