5 10 34
10 5 31
4 5 28
5 4 27
7 5 26
5 7 24
17 14 19
14 17 18
12 5 13
5 11 9
5 12 9
14 28 9
28 14 9
11 5 6
11 10 6
10 11 5
25 5 5
14 27 5
4 25 4
5 25 4
27 14 4
11 12 3
14 15 3
15 14 3
22 5 3
25 4 3
27 28 3
14 5 2
10 7 2
22 23 2
23 22 2
5 22 2
23 5 2
5 23 2
28 27 2
5 32 2
32 5 2
10 12 2
1 2 1
2 3 1
3 4 1
5 6 1
6 5 1
5 8 1
8 7 1
5 9 1
9 7 1
7 10 1
10 13 1
13 14 1
14 16 1
16 17 1
14 18 1
18 17 1
17 19 1
19 20 1
20 14 1
5 21 1
21 7 1
7 22 1
5 24 1
24 23 1
23 4 1
7 26 1
26 27 1
28 29 1
29 14 1
27 4 1
4 30 1
30 4 1
4 17 1
17 5 1
5 31 1
31 5 1
5 14 1
12 11 1
5 33 1
33 14 1
14 12 1
12 17 1
17 34 1
34 5 1
5 35 1
35 36 1
36 37 1
37 10 1
10 17 1
17 38 1
38 39 1
39 38 1
38 40 1
40 41 1
41 38 1
38 42 1
42 43 1
43 38 1
38 44 1
44 45 1
45 38 1
38 46 1
46 47 1
47 48 1
48 38 1
38 49 1
49 38 1
38 50 1
50 51 1
51 38 1
38 52 1
52 38 1
