4 7 36
7 4 35
9 5 19
5 9 17
2 5 11
5 2 11
15 5 10
5 15 8
5 14 8
14 5 7
5 13 6
34 4 6
4 34 6
13 5 5
4 5 4
31 4 4
5 4 3
21 4 3
5 24 3
4 31 3
3 4 2
13 9 2
13 12 2
7 13 2
12 17 2
12 15 2
5 7 2
18 5 2
14 7 2
4 21 2
9 23 2
24 5 2
26 9 2
4 33 2
1 2 1
2 3 1
4 3 1
4 2 1
4 6 1
6 4 1
7 8 1
8 4 1
7 9 1
9 10 1
10 9 1
5 11 1
11 12 1
12 9 1
9 13 1
12 14 1
14 15 1
15 14 1
14 4 1
5 16 1
16 12 1
17 12 1
17 5 1
2 18 1
5 18 1
5 19 1
19 7 1
7 14 1
7 15 1
15 12 1
5 20 1
20 5 1
7 21 1
21 5 1
5 21 1
9 22 1
22 9 1
23 9 1
24 12 1
12 25 1
25 23 1
23 24 1
24 9 1
9 26 1
9 24 1
24 27 1
27 9 1
9 27 1
27 24 1
24 26 1
5 25 1
25 5 1
4 28 1
28 29 1
29 7 1
7 30 1
30 4 1
4 30 1
30 31 1
4 32 1
32 4 1
33 4 1
33 23 1
23 7 1
9 34 1
34 35 1
35 36 1
36 5 1
23 37 1
