4 48 54
11 4 51
48 4 51
4 11 42
25 4 32
4 25 31
9 4 24
4 9 22
10 4 19
4 10 16
8 4 13
4 8 12
9 10 10
48 9 10
9 48 10
4 43 8
11 48 8
48 8 8
4 16 7
48 11 7
54 4 7
10 9 6
4 12 6
11 10 6
10 11 6
8 11 6
8 48 6
4 54 6
14 4 5
16 4 5
4 18 5
8 25 5
12 4 5
43 4 5
45 4 5
18 4 4
4 19 4
25 9 4
25 8 4
9 25 4
49 48 4
54 9 4
9 54 4
13 4 3
4 21 3
25 26 3
26 25 3
11 8 3
25 11 3
4 14 3
4 45 3
48 49 3
58 4 3
4 58 3
4 5 2
5 4 2
8 10 2
12 13 2
12 14 2
4 15 2
19 18 2
10 12 2
4 13 2
21 4 2
18 8 2
4 24 2
24 4 2
28 4 2
10 25 2
9 11 2
4 32 2
4 37 2
4 39 2
43 45 2
48 12 2
19 4 2
48 28 2
28 48 2
48 52 2
48 54 2
4 57 2
57 48 2
8 58 2
58 11 2
59 9 2
58 8 2
1 2 1
2 3 1
3 4 1
4 6 1
6 5 1
5 7 1
7 4 1
4 7 1
7 8 1
10 8 1
13 9 1
15 4 1
4 17 1
17 4 1
18 13 1
16 11 1
13 10 1
12 15 1
15 10 1
4 20 1
20 11 1
15 8 1
21 8 1
4 22 1
22 11 1
18 19 1
8 18 1
18 23 1
23 18 1
8 19 1
19 11 1
4 27 1
27 4 1
25 28 1
25 10 1
16 10 1
11 25 1
4 29 1
29 30 1
30 9 1
9 30 1
30 8 1
11 31 1
31 4 1
32 33 1
33 34 1
34 35 1
35 4 1
32 4 1
4 36 1
36 9 1
9 12 1
12 10 1
10 28 1
28 8 1
8 9 1
10 14 1
19 9 1
37 11 1
37 4 1
11 38 1
38 9 1
10 38 1
38 4 1
39 4 1
39 40 1
40 8 1
9 13 1
13 14 1
14 10 1
10 41 1
41 10 1
10 42 1
42 8 1
8 42 1
42 25 1
43 44 1
44 45 1
43 25 1
45 8 1
8 43 1
4 46 1
46 4 1
4 47 1
47 9 1
8 49 1
48 50 1
50 48 1
19 48 1
48 19 1
4 51 1
51 48 1
48 13 1
52 48 1
14 11 1
52 4 1
48 53 1
53 28 1
4 55 1
55 48 1
4 56 1
56 48 1
48 10 1
10 48 1
54 48 1
57 4 1
48 57 1
13 58 1
11 58 1
58 57 1
57 58 1
58 48 1
48 58 1
8 59 1
9 59 1
48 5 1
5 9 1
11 9 1
11 60 1
60 8 1
4 61 1
61 58 1
58 10 1
10 58 1
58 9 1
