4 17 104
17 4 98
4 7 94
7 4 86
7 17 12
17 7 10
4 23 8
23 4 7
25 4 7
4 25 5
52 4 5
7 74 5
4 52 4
4 59 4
7 80 4
11 4 3
30 4 3
59 4 3
74 7 3
80 7 3
25 17 3
3 4 2
6 4 2
4 8 2
4 11 2
15 4 2
4 16 2
7 25 2
4 27 2
27 4 2
28 4 2
17 30 2
29 17 2
4 36 2
36 4 2
23 7 2
66 67 2
7 70 2
25 80 2
80 25 2
80 4 2
17 25 2
1 2 1
2 3 1
4 3 1
4 5 1
5 6 1
6 7 1
7 6 1
8 9 1
9 4 1
8 4 1
4 10 1
10 11 1
4 12 1
12 13 1
13 14 1
14 15 1
4 15 1
16 6 1
4 18 1
18 19 1
19 4 1
4 20 1
20 21 1
21 17 1
17 22 1
22 4 1
4 2 1
2 4 1
4 24 1
24 4 1
25 7 1
7 26 1
26 7 1
7 28 1
4 28 1
28 29 1
29 28 1
4 30 1
4 31 1
31 4 1
4 32 1
32 4 1
17 29 1
4 33 1
33 7 1
7 34 1
34 4 1
7 35 1
35 7 1
4 37 1
37 4 1
7 38 1
38 4 1
17 16 1
16 17 1
17 39 1
39 4 1
7 40 1
40 41 1
41 42 1
42 17 1
17 43 1
43 7 1
4 44 1
44 4 1
16 4 1
4 45 1
45 4 1
4 46 1
46 4 1
7 47 1
47 48 1
48 4 1
17 49 1
49 4 1
4 49 1
49 50 1
50 4 1
4 14 1
14 4 1
23 17 1
17 51 1
51 52 1
4 53 1
53 4 1
17 54 1
54 4 1
17 55 1
55 17 1
4 56 1
56 17 1
4 57 1
57 4 1
17 23 1
17 27 1
7 58 1
58 4 1
4 60 1
60 4 1
59 17 1
17 61 1
61 62 1
62 63 1
63 7 1
7 64 1
64 65 1
65 66 1
67 66 1
67 4 1
4 68 1
68 69 1
69 7 1
70 7 1
70 17 1
17 70 1
70 4 1
4 29 1
4 71 1
71 4 1
4 72 1
72 4 1
4 73 1
73 4 1
7 23 1
7 75 1
75 7 1
27 7 1
7 76 1
76 7 1
74 4 1
74 29 1
29 7 1
4 77 1
77 78 1
78 4 1
7 79 1
79 7 1
4 80 1
7 78 1
78 81 1
81 25 1
7 82 1
82 7 1
17 83 1
83 25 1
17 84 1
84 85 1
85 86 1
86 7 1
7 87 1
87 4 1
17 88 1
88 4 1
17 89 1
89 90 1
90 4 1
4 91 1
91 92 1
92 4 1
4 93 1
93 17 1
7 94 1
94 7 1
4 95 1
95 4 1
17 96 1
96 4 1
