1 2 32
2 1 26
2 13 21
13 2 20
5 20 7
2 27 7
20 5 6
19 1 6
27 2 6
18 19 5
2 19 5
2 8 4
9 2 4
13 1 4
1 18 4
27 1 4
2 5 3
2 16 3
16 2 3
19 2 3
11 1 3
1 19 3
1 11 3
1 27 3
3 5 2
2 9 2
5 16 2
5 18 2
2 11 2
1 13 2
19 18 2
18 20 2
2 26 2
26 2 2
1 3 1
3 4 1
4 3 1
5 3 1
5 6 1
6 7 1
7 1 1
8 2 1
8 9 1
2 10 1
10 11 1
11 2 1
8 12 1
12 2 1
8 10 1
10 9 1
2 14 1
14 2 1
2 15 1
15 2 1
16 5 1
16 17 1
17 2 1
18 5 1
19 5 1
20 2 1
11 21 1
21 2 1
19 22 1
22 1 1
11 20 1
20 22 1
22 23 1
23 19 1
1 24 1
24 2 1
2 24 1
24 1 1
13 24 1
24 13 1
1 25 1
25 1 1
18 1 1
19 20 1
20 19 1
5 2 1
19 13 1
20 18 1
20 1 1
1 28 1
28 1 1
