18 15 47
15 18 46
5 15 36
15 5 33
5 18 17
18 5 15
10 5 14
5 10 14
5 4 10
19 17 10
4 5 9
17 19 9
25 5 8
5 25 7
17 5 6
21 17 6
15 19 5
17 21 5
7 9 4
15 16 4
16 15 4
27 5 4
4 25 4
9 5 3
9 7 3
18 17 3
16 27 3
5 27 3
25 4 3
2 3 2
4 6 2
5 7 2
5 11 2
11 5 2
6 12 2
12 9 2
5 17 2
19 5 2
16 18 2
17 23 2
23 24 2
16 19 2
19 15 2
27 16 2
5 28 2
29 5 2
1 2 1
3 2 1
3 4 1
6 5 1
7 5 1
4 8 1
8 6 1
6 4 1
4 9 1
5 6 1
6 10 1
10 4 1
5 13 1
13 14 1
14 5 1
5 14 1
14 15 1
18 19 1
16 17 1
19 18 1
15 20 1
20 18 1
18 16 1
15 21 1
21 5 1
5 22 1
22 17 1
24 17 1
19 23 1
23 21 1
24 18 1
17 16 1
19 16 1
18 1 1
1 25 1
25 16 1
16 25 1
5 16 1
5 19 1
19 21 1
17 22 1
22 19 1
21 16 1
19 26 1
26 16 1
28 5 1
28 29 1
5 30 1
30 29 1
4 7 1
7 4 1
25 12 1
9 6 1
12 25 1
25 31 1
31 4 1
5 1 1
1 32 1
32 33 1
