11 10 82
10 11 81
11 13 23
13 11 21
12 25 16
25 12 16
10 28 11
28 10 11
10 9 10
31 11 9
10 31 9
13 10 8
10 13 8
31 10 8
11 31 7
9 10 6
27 10 6
10 27 6
11 12 5
9 11 5
8 9 4
29 10 4
11 9 4
5 3 3
12 11 3
9 28 3
29 27 3
27 29 3
9 29 3
29 9 3
9 31 3
3 8 2
10 17 2
18 10 2
22 10 2
13 9 2
23 11 2
11 27 2
29 28 2
28 27 2
8 10 2
10 29 2
9 8 2
8 29 2
27 11 2
10 8 2
28 11 2
1 2 1
2 3 1
3 4 1
4 3 1
3 5 1
3 6 1
6 7 1
7 5 1
8 5 1
12 13 1
10 14 1
14 10 1
10 15 1
15 10 1
10 16 1
16 10 1
17 18 1
13 19 1
19 10 1
10 20 1
20 10 1
10 21 1
21 11 1
10 22 1
9 13 1
10 23 1
11 24 1
24 11 1
12 26 1
26 25 1
12 22 1
27 28 1
28 29 1
27 9 1
28 8 1
13 12 1
25 30 1
30 12 1
12 31 1
31 23 1
11 29 1
29 11 1
11 28 1
11 32 1
32 29 1
28 9 1
9 27 1
27 8 1
31 9 1
31 8 1
9 18 1
17 10 1
9 23 1
23 10 1
