9 15 38
15 9 35
9 13 32
13 9 31
13 12 30
12 13 28
12 3 27
13 20 26
20 13 25
3 12 24
13 15 23
15 13 22
9 20 18
20 9 18
9 18 15
18 9 15
13 61 13
61 13 13
46 9 10
9 46 10
20 3 10
3 20 10
8 9 9
28 13 7
13 7 7
20 12 7
12 20 7
78 12 7
12 78 7
9 8 7
7 13 7
9 10 6
10 9 6
13 18 6
46 13 5
12 56 5
56 12 5
31 13 5
18 13 5
12 23 4
13 63 4
13 31 4
13 46 4
13 14 3
16 9 3
23 12 3
7 28 3
13 28 3
28 20 3
6 8 3
8 6 3
39 12 3
12 39 3
40 13 3
20 48 3
48 20 3
12 36 3
36 13 3
13 62 3
62 13 3
3 78 3
5 6 2
10 12 2
3 13 2
14 13 2
15 16 2
2 20 2
20 10 2
22 12 2
13 10 2
28 9 2
9 28 2
7 9 2
9 7 2
28 29 2
29 28 2
20 28 2
28 12 2
12 28 2
9 32 2
32 9 2
9 16 2
15 55 2
55 9 2
63 20 2
65 13 2
13 65 2
13 40 2
73 74 2
74 73 2
13 76 2
76 13 2
78 3 2
13 81 2
13 8 2
8 13 2
13 87 2
87 13 2
46 12 2
13 91 2
91 13 2
97 9 2
1 2 1
2 3 1
3 1 1
1 4 1
4 1 1
1 5 1
6 5 1
6 2 1
2 7 1
7 8 1
10 8 1
9 11 1
11 10 1
14 15 1
16 15 1
15 17 1
17 9 1
9 19 1
19 15 1
15 10 1
10 2 1
20 2 1
20 14 1
14 20 1
9 21 1
21 22 1
12 22 1
10 13 1
13 24 1
24 13 1
12 25 1
25 9 1
9 25 1
25 13 1
13 26 1
26 13 1
13 27 1
27 28 1
28 7 1
7 20 1
20 30 1
30 20 1
20 7 1
7 12 1
12 7 1
12 31 1
31 12 1
12 9 1
20 33 1
33 9 1
9 34 1
34 4 1
4 12 1
12 35 1
35 9 1
9 36 1
36 9 1
9 37 1
37 9 1
9 38 1
38 6 1
6 39 1
39 3 1
3 40 1
10 41 1
41 42 1
42 43 1
43 44 1
44 45 1
45 13 1
20 46 1
20 47 1
47 20 1
13 49 1
49 50 1
50 13 1
13 22 1
22 49 1
49 13 1
9 51 1
51 9 1
13 52 1
52 53 1
53 12 1
12 53 1
53 13 1
13 53 1
53 9 1
9 54 1
54 18 1
18 15 1
55 12 1
12 55 1
55 15 1
9 55 1
9 12 1
12 57 1
57 12 1
12 58 1
58 12 1
12 59 1
59 12 1
13 60 1
60 13 1
62 61 1
61 62 1
13 64 1
64 13 1
62 65 1
63 13 1
12 62 1
65 9 1
20 66 1
66 20 1
20 67 1
67 68 1
68 69 1
69 70 1
70 71 1
71 9 1
13 36 1
36 72 1
72 13 1
13 73 1
73 75 1
75 28 1
13 55 1
55 28 1
20 4 1
4 77 1
77 3 1
78 20 1
20 79 1
79 15 1
15 12 1
3 80 1
80 12 1
12 80 1
80 9 1
9 31 1
81 13 1
81 46 1
9 82 1
82 9 1
9 83 1
83 9 1
23 13 1
8 84 1
84 85 1
85 8 1
8 12 1
13 86 1
86 8 1
87 8 1
8 87 1
18 12 1
15 46 1
12 46 1
15 88 1
88 20 1
46 20 1
9 89 1
89 9 1
13 90 1
90 13 1
13 92 1
92 93 1
93 92 1
92 13 1
7 94 1
94 7 1
13 93 1
93 95 1
95 93 1
93 13 1
9 95 1
95 7 1
7 93 1
93 7 1
13 96 1
96 9 1
9 96 1
96 97 1
9 97 1
20 98 1
98 13 1
13 99 1
99 13 1
63 7 1
