10 20 40
20 10 33
13 16 33
16 13 31
10 16 28
16 10 26
14 13 22
13 14 21
16 18 20
18 16 19
16 20 19
20 16 18
18 10 15
10 18 15
10 24 14
24 10 13
16 63 11
63 16 11
18 14 10
32 16 9
14 18 9
50 10 8
7 16 8
18 13 7
13 18 7
13 76 7
10 50 7
41 10 7
10 41 7
10 9 6
16 32 6
16 7 6
76 13 6
9 10 5
59 13 5
16 52 4
13 59 4
2 16 3
21 10 3
13 32 3
16 50 3
50 16 3
57 10 3
60 16 3
16 65 3
16 41 3
16 24 3
4 5 2
9 13 2
16 2 2
2 18 2
15 16 2
18 20 2
27 13 2
9 16 2
13 10 2
10 31 2
32 7 2
7 32 2
18 32 2
7 13 2
32 13 2
32 18 2
35 10 2
18 36 2
40 41 2
13 42 2
42 13 2
48 16 2
52 16 2
10 21 2
20 57 2
13 60 2
16 35 2
16 64 2
64 16 2
65 16 2
16 69 2
69 16 2
72 16 2
14 76 2
76 14 2
14 75 2
77 13 2
13 7 2
41 16 2
24 16 2
24 13 2
52 13 2
16 87 2
87 16 2
16 27 2
1 2 1
2 1 1
1 3 1
3 1 1
1 4 1
5 4 1
5 6 1
6 7 1
7 8 1
8 9 1
10 11 1
11 10 1
10 12 1
12 9 1
13 15 1
15 14 1
14 2 1
16 17 1
17 2 1
18 2 1
18 19 1
19 18 1
18 15 1
20 21 1
20 22 1
22 10 1
10 23 1
23 10 1
10 25 1
25 20 1
20 9 1
9 14 1
14 26 1
26 9 1
9 27 1
16 28 1
28 29 1
29 13 1
16 30 1
30 9 1
16 9 1
9 2 1
2 9 1
31 10 1
31 16 1
32 10 1
10 32 1
7 10 1
10 7 1
7 18 1
18 7 1
13 8 1
8 7 1
13 33 1
33 13 1
10 34 1
34 18 1
18 35 1
36 37 1
37 18 1
18 38 1
38 18 1
18 39 1
39 40 1
41 40 1
41 42 1
42 43 1
43 40 1
40 44 1
44 13 1
13 27 1
27 45 1
45 46 1
46 10 1
16 47 1
47 10 1
9 46 1
46 48 1
16 48 1
16 49 1
49 16 1
18 51 1
51 52 1
52 8 1
8 16 1
16 53 1
53 10 1
10 53 1
53 54 1
54 55 1
55 13 1
13 55 1
55 16 1
16 55 1
55 10 1
24 56 1
56 24 1
24 27 1
27 20 1
10 35 1
35 57 1
20 15 1
15 10 1
20 58 1
58 20 1
10 13 1
16 59 1
13 61 1
61 35 1
35 13 1
13 62 1
62 10 1
35 18 1
16 15 1
65 10 1
16 66 1
66 67 1
67 19 1
19 68 1
68 16 1
16 60 1
16 70 1
70 32 1
18 57 1
57 18 1
20 71 1
71 10 1
20 2 1
2 17 1
17 72 1
16 72 1
16 71 1
71 73 1
73 74 1
74 73 1
73 75 1
75 14 1
76 8 1
8 14 1
14 27 1
14 46 1
46 14 1
75 7 1
7 46 1
46 77 1
13 77 1
13 45 1
45 14 1
7 14 1
75 13 1
7 75 1
75 78 1
78 13 1
13 79 1
79 10 1
20 80 1
80 16 1
16 80 1
80 81 1
81 50 1
13 82 1
82 16 1
16 83 1
83 16 1
41 84 1
84 16 1
13 85 1
85 13 1
16 86 1
86 24 1
13 52 1
13 87 1
87 13 1
20 88 1
88 16 1
20 36 1
36 20 1
20 13 1
13 89 1
89 18 1
52 18 1
14 90 1
90 18 1
10 69 1
69 88 1
88 7 1
10 27 1
27 7 1
16 91 1
91 16 1
10 92 1
92 93 1
93 10 1
10 94 1
94 10 1
27 95 1
95 10 1
16 96 1
96 16 1
16 97 1
97 7 1
27 18 1
36 7 1
7 98 1
98 32 1
32 36 1
36 16 1
16 8 1
8 32 1
