3 12 129
12 3 127
13 12 22
12 13 21
12 29 12
29 12 11
22 3 8
3 13 8
8 3 7
3 22 7
13 3 7
3 8 6
3 9 5
12 14 5
14 12 5
41 3 5
3 6 4
6 3 4
9 3 4
3 21 4
12 39 4
39 12 4
3 41 4
12 46 4
21 3 3
24 25 3
25 24 3
43 3 3
3 43 3
46 12 3
3 4 2
8 18 2
18 3 2
3 19 2
19 12 2
12 19 2
3 20 2
24 3 2
25 26 2
26 25 2
29 3 2
3 29 2
13 34 2
50 3 2
3 50 2
1 2 1
2 3 1
4 3 1
4 5 1
5 6 1
6 5 1
5 3 1
6 7 1
7 8 1
9 10 1
10 8 1
8 11 1
11 9 1
9 8 1
12 15 1
15 12 1
12 16 1
16 14 1
14 3 1
3 17 1
17 3 1
18 8 1
19 3 1
19 18 1
20 3 1
20 6 1
12 22 1
21 23 1
23 21 1
21 22 1
22 9 1
9 24 1
3 24 1
3 27 1
27 28 1
28 29 1
29 30 1
30 12 1
29 28 1
28 31 1
31 32 1
32 33 1
33 13 1
34 3 1
34 13 1
3 35 1
35 36 1
36 29 1
29 37 1
37 38 1
38 12 1
12 40 1
40 32 1
32 41 1
12 42 1
42 43 1
43 44 1
44 3 1
3 1 1
1 3 1
3 45 1
45 3 1
46 47 1
47 12 1
12 47 1
47 48 1
48 12 1
12 48 1
48 3 1
3 49 1
49 50 1
50 12 1
3 51 1
