3 2 50
13 1 50
1 3 49
1 13 49
2 3 42
3 1 41
2 1 39
1 2 28
5 1 26
1 5 23
3 13 15
1 7 13
13 2 12
7 5 11
7 1 10
2 13 10
13 3 10
5 7 8
1 6 6
2 5 6
5 2 5
6 5 5
13 5 5
27 5 4
5 28 4
28 27 4
5 6 4
1 22 4
2 34 4
34 2 4
5 13 4
6 1 3
22 1 3
3 22 3
22 3 3
3 4 2
6 7 2
1 11 2
18 19 2
19 3 2
3 17 2
28 5 2
5 27 2
27 28 2
30 3 2
4 1 1
5 3 1
2 6 1
5 8 1
8 1 1
2 9 1
9 2 1
1 10 1
10 3 1
11 3 1
3 12 1
12 2 1
13 11 1
11 1 1
5 14 1
14 15 1
15 16 1
16 17 1
17 18 1
2 20 1
20 4 1
4 3 1
4 21 1
21 1 1
1 20 1
20 1 1
5 22 1
22 5 1
13 15 1
15 2 1
2 14 1
14 2 1
2 16 1
16 2 1
2 15 1
15 18 1
18 3 1
17 23 1
23 24 1
24 3 1
3 18 1
18 24 1
24 25 1
25 19 1
17 3 1
6 26 1
26 1 1
7 27 1
27 6 1
1 15 1
15 29 1
29 30 1
3 30 1
1 31 1
31 1 1
11 2 1
22 13 1
1 4 1
4 2 1
1 32 1
32 5 1
1 18 1
18 17 1
17 24 1
24 23 1
23 18 1
19 23 1
23 5 1
5 19 1
19 5 1
7 2 1
1 33 1
33 1 1
34 1 1
1 34 1
6 16 1
16 35 1
35 1 1
1 36 1
36 1 1
5 37 1
37 2 1
2 4 1
4 38 1
38 3 1
