4 12 44
12 4 41
53 4 22
4 7 20
4 53 20
4 46 19
7 4 18
46 4 15
4 16 12
16 4 12
4 13 10
46 49 10
4 28 9
28 4 9
51 4 9
49 4 9
13 4 8
12 45 8
4 77 8
4 14 7
49 46 7
4 51 7
4 49 7
45 12 7
77 4 7
14 4 6
17 12 6
12 7 6
7 12 6
12 17 5
12 16 5
16 12 5
4 45 5
53 46 5
46 53 5
13 12 4
4 26 4
26 4 4
4 29 4
29 4 4
30 4 4
33 4 4
4 38 4
12 13 4
44 4 4
45 4 4
47 4 4
4 50 4
50 4 4
70 4 4
5 4 3
12 21 3
21 12 3
4 24 3
24 4 3
4 30 3
4 33 3
38 4 3
43 4 3
4 44 3
4 48 3
48 4 3
49 53 3
4 47 3
67 4 3
46 67 3
4 70 3
4 5 2
14 16 2
4 32 2
32 4 2
4 37 2
37 4 2
4 40 2
40 4 2
42 4 2
4 43 2
45 46 2
55 4 2
58 4 2
60 4 2
12 49 2
4 67 2
12 67 2
67 53 2
53 12 2
12 74 2
45 53 2
1 2 1
2 3 1
3 2 1
2 4 1
4 2 1
2 5 1
5 6 1
6 5 1
7 8 1
8 4 1
4 9 1
9 7 1
7 10 1
10 11 1
11 12 1
4 15 1
15 4 1
16 14 1
16 13 1
13 17 1
17 4 1
4 18 1
18 19 1
19 4 1
12 20 1
20 4 1
4 22 1
22 12 1
4 23 1
23 4 1
4 25 1
25 4 1
26 27 1
27 26 1
4 31 1
31 30 1
16 33 1
7 34 1
34 4 1
4 35 1
35 4 1
4 36 1
36 4 1
4 39 1
39 4 1
38 41 1
41 42 1
13 43 1
4 27 1
27 47 1
4 20 1
20 46 1
51 50 1
50 46 1
49 51 1
4 52 1
52 51 1
51 46 1
46 16 1
46 54 1
54 12 1
13 55 1
4 55 1
46 55 1
55 56 1
56 57 1
57 46 1
46 58 1
4 58 1
4 59 1
59 60 1
4 60 1
4 61 1
61 4 1
4 62 1
62 46 1
46 51 1
46 17 1
12 46 1
46 63 1
63 46 1
4 64 1
64 4 1
46 47 1
12 65 1
65 12 1
53 66 1
66 53 1
67 49 1
46 12 1
47 51 1
51 44 1
44 51 1
51 53 1
67 12 1
12 68 1
68 46 1
4 68 1
68 69 1
69 70 1
4 71 1
71 72 1
72 68 1
68 4 1
4 73 1
73 4 1
74 12 1
74 75 1
75 12 1
53 42 1
4 76 1
76 4 1
4 63 1
63 4 1
12 44 1
77 53 1
53 78 1
78 46 1
49 45 1
53 45 1
12 47 1
47 12 1
53 51 1
12 9 1
9 4 1
45 44 1
44 45 1
53 49 1
12 63 1
63 12 1
