8 3 43
3 8 42
4 3 38
3 4 35
22 19 26
19 22 25
3 9 21
9 3 21
3 26 21
26 3 20
33 19 14
19 33 14
3 25 10
25 3 10
3 6 9
6 3 9
22 3 9
20 19 6
19 20 6
3 22 6
36 3 6
22 20 5
20 22 5
35 3 5
3 35 5
3 36 5
9 11 4
12 9 4
21 19 4
19 21 4
8 22 4
10 9 3
11 9 3
9 12 3
9 8 3
3 24 3
24 3 3
28 3 3
8 9 3
3 19 3
9 10 2
11 3 2
10 12 2
3 17 2
3 18 2
18 19 2
19 18 2
21 22 2
19 23 2
23 19 2
22 28 2
3 28 2
28 22 2
21 3 2
3 21 2
22 8 2
3 37 2
37 3 2
4 8 2
43 44 2
19 3 2
1 2 1
2 3 1
3 5 1
5 3 1
3 7 1
7 8 1
3 11 1
3 10 1
9 13 1
13 9 1
9 14 1
14 15 1
15 16 1
16 3 1
3 16 1
16 8 1
17 3 1
17 4 1
18 3 1
18 20 1
20 21 1
19 8 1
3 27 1
27 22 1
22 29 1
29 22 1
22 21 1
3 30 1
30 31 1
31 28 1
8 25 1
25 4 1
3 32 1
32 4 1
26 21 1
25 22 1
22 33 1
33 8 1
8 34 1
34 8 1
22 9 1
19 10 1
22 35 1
35 36 1
3 38 1
38 3 1
3 39 1
39 3 1
9 40 1
40 41 1
41 22 1
21 25 1
25 26 1
26 6 1
6 21 1
21 6 1
6 25 1
25 42 1
42 25 1
8 19 1
19 43 1
44 43 1
44 22 1
3 45 1
45 10 1
12 4 1
8 4 1
4 2 1
2 4 1
3 46 1
