8 9 26
9 8 22
31 33 17
33 31 17
31 28 16
28 31 16
9 21 11
21 9 11
21 31 11
29 31 10
31 21 10
31 29 8
31 42 7
42 31 7
10 9 4
9 10 4
21 8 4
8 21 4
38 31 4
31 38 4
31 39 4
39 31 4
31 43 4
43 31 4
10 8 3
15 9 3
9 22 3
27 31 3
31 22 3
29 28 3
8 10 2
12 8 2
8 15 2
19 9 2
9 19 2
19 8 2
22 9 2
24 9 2
9 25 2
26 8 2
30 27 2
29 33 2
36 31 2
31 37 2
37 33 2
38 29 2
29 38 2
22 29 2
28 29 2
1 2 1
2 3 1
3 4 1
4 5 1
5 6 1
6 7 1
7 8 1
9 7 1
7 10 1
9 11 1
11 8 1
8 11 1
11 12 1
8 12 1
12 9 1
9 12 1
9 13 1
13 8 1
9 14 1
14 8 1
9 15 1
9 16 1
16 9 1
9 17 1
17 8 1
8 17 1
17 18 1
18 16 1
16 8 1
8 16 1
16 19 1
8 19 1
8 20 1
20 8 1
22 23 1
23 9 1
8 23 1
23 8 1
8 24 1
9 24 1
25 9 1
25 26 1
8 26 1
9 27 1
27 28 1
28 27 1
27 29 1
29 30 1
31 27 1
27 30 1
31 32 1
32 27 1
33 34 1
34 33 1
33 35 1
35 36 1
31 36 1
33 37 1
37 31 1
33 38 1
33 40 1
40 21 1
33 29 1
38 41 1
41 29 1
22 31 1
29 21 1
21 29 1
31 44 1
44 31 1
31 45 1
45 31 1
31 46 1
46 47 1
47 33 1
28 48 1
48 29 1
