12 9 22
9 12 22
13 9 22
13 18 20
9 13 19
6 13 17
13 6 17
18 13 16
12 13 14
13 25 14
17 13 13
18 12 13
24 13 12
13 24 12
13 12 11
13 17 10
17 18 9
12 17 9
17 12 9
13 21 9
12 30 9
25 13 9
18 17 8
16 11 8
19 17 8
21 12 8
12 21 8
21 13 8
12 18 8
30 12 8
30 13 8
13 30 8
16 17 7
17 19 7
12 16 6
11 16 6
11 17 6
17 16 6
20 13 6
22 12 6
26 18 6
16 13 5
13 20 5
12 22 5
18 16 5
12 25 5
18 26 5
27 16 5
25 12 5
16 12 4
17 11 4
22 13 4
13 22 4
25 17 4
6 26 4
26 6 4
17 27 4
12 29 4
29 13 4
26 13 4
11 13 3
16 19 3
16 27 3
29 12 3
6 12 3
12 6 3
25 32 3
33 25 3
25 33 3
33 17 3
9 10 2
10 9 2
11 12 2
12 11 2
13 11 2
13 16 2
16 18 2
9 17 2
19 16 2
25 6 2
27 17 2
13 29 2
13 26 2
17 26 2
17 25 2
32 25 2
32 12 2
13 33 2
1 2 1
2 3 1
3 4 1
4 5 1
5 6 1
6 7 1
7 8 1
8 9 1
9 11 1
13 14 1
14 12 1
9 15 1
15 12 1
17 9 1
9 20 1
21 22 1
12 23 1
23 24 1
24 18 1
6 18 1
17 28 1
28 17 1
17 29 1
30 18 1
30 16 1
16 30 1
6 25 1
12 26 1
6 31 1
31 6 1
25 21 1
21 18 1
26 16 1
16 26 1
32 17 1
17 32 1
18 25 1
25 18 1
18 33 1
17 33 1
33 12 1
12 34 1
34 13 1
18 35 1
35 32 1
