10 24 72
24 10 71
5 10 53
10 5 53
10 49 33
49 10 30
10 3 26
7 27 25
27 7 25
3 10 23
3 5 21
10 75 21
3 27 19
27 10 17
5 3 17
10 27 16
5 15 15
75 10 15
49 24 13
24 49 13
27 3 12
10 7 12
9 10 11
9 15 11
15 9 11
15 5 11
75 5 11
15 10 10
13 10 9
10 9 9
20 10 9
10 20 9
24 3 9
24 7 9
10 13 8
31 10 8
43 10 8
10 43 8
7 10 8
7 24 8
5 75 8
27 5 8
5 27 8
10 15 7
3 24 7
27 75 7
10 11 6
11 10 6
44 10 6
75 7 6
75 27 6
7 75 6
75 3 6
86 10 6
7 15 6
10 29 5
37 24 5
15 3 5
24 75 5
10 41 5
49 3 5
3 49 5
49 75 5
10 86 5
15 7 5
10 12 4
29 10 4
10 31 4
41 24 4
10 44 4
37 31 4
3 15 4
75 49 4
3 75 4
75 24 4
93 24 4
7 8 3
12 10 3
24 43 3
49 37 3
29 37 3
7 41 3
10 37 3
75 86 3
113 10 3
8 7 2
11 12 2
12 11 2
9 16 2
16 9 2
31 29 2
33 27 2
27 24 2
27 37 2
37 10 2
39 24 2
24 31 2
10 39 2
29 39 2
24 42 2
42 10 2
49 51 2
51 49 2
61 10 2
10 62 2
64 10 2
7 74 2
41 75 2
49 7 2
41 49 2
82 10 2
86 75 2
75 37 2
75 15 2
15 75 2
24 93 2
5 95 2
95 5 2
98 3 2
41 5 2
75 93 2
103 10 2
5 41 2
113 5 2
10 113 2
1 2 1
2 3 1
3 4 1
4 5 1
5 6 1
6 7 1
8 9 1
11 13 1
13 14 1
14 10 1
13 9 1
9 17 1
17 15 1
15 18 1
18 9 1
10 19 1
19 15 1
15 20 1
20 21 1
21 20 1
20 22 1
22 10 1
10 23 1
23 10 1
3 25 1
25 10 1
10 26 1
26 3 1
27 28 1
28 10 1
27 29 1
29 30 1
30 31 1
31 3 1
3 29 1
29 31 1
10 32 1
32 33 1
27 33 1
27 34 1
34 27 1
10 35 1
35 3 1
3 33 1
33 24 1
27 36 1
36 27 1
10 38 1
38 10 1
24 27 1
37 39 1
39 31 1
31 39 1
29 24 1
24 29 1
39 40 1
40 29 1
39 10 1
39 41 1
43 44 1
24 45 1
45 44 1
42 24 1
24 46 1
46 47 1
47 37 1
44 43 1
43 48 1
48 10 1
24 44 1
49 50 1
50 10 1
49 52 1
52 53 1
53 49 1
37 49 1
49 43 1
43 49 1
24 54 1
54 49 1
49 55 1
55 49 1
24 56 1
56 24 1
10 57 1
57 24 1
10 58 1
58 10 1
37 29 1
29 59 1
59 29 1
31 37 1
31 60 1
60 37 1
31 61 1
12 62 1
62 10 1
62 63 1
63 10 1
62 64 1
10 64 1
10 14 1
14 65 1
65 13 1
13 66 1
66 3 1
3 13 1
3 67 1
67 10 1
3 68 1
68 5 1
5 14 1
14 5 1
5 69 1
69 5 1
5 70 1
70 15 1
15 71 1
71 72 1
72 73 1
73 7 1
74 75 1
74 7 1
7 76 1
76 7 1
27 41 1
10 77 1
77 10 1
7 49 1
7 78 1
78 10 1
7 79 1
79 3 1
41 31 1
49 80 1
80 75 1
49 81 1
81 3 1
37 75 1
75 31 1
10 82 1
43 83 1
83 24 1
37 3 1
3 41 1
43 75 1
10 84 1
84 85 1
85 75 1
24 37 1
10 42 1
10 87 1
87 10 1
24 88 1
88 24 1
41 11 1
75 13 1
15 89 1
89 10 1
10 90 1
90 10 1
10 91 1
91 10 1
24 92 1
92 24 1
7 37 1
37 94 1
94 75 1
5 96 1
96 5 1
5 97 1
97 98 1
3 98 1
5 24 1
24 41 1
75 99 1
99 10 1
24 59 1
59 75 1
75 100 1
100 75 1
24 101 1
101 75 1
75 102 1
102 7 1
41 103 1
10 103 1
75 103 1
103 41 1
41 3 1
24 104 1
104 10 1
75 44 1
44 105 1
105 44 1
44 106 1
106 10 1
10 107 1
107 108 1
108 10 1
10 109 1
109 110 1
110 10 1
10 110 1
110 49 1
5 111 1
111 3 1
75 112 1
112 10 1
37 113 1
5 113 1
113 114 1
114 113 1
5 115 1
115 10 1
75 113 1
41 116 1
116 75 1
75 117 1
117 75 1
75 118 1
118 5 1
5 82 1
15 27 1
27 15 1
75 119 1
119 117 1
117 10 1
10 117 1
117 41 1
41 61 1
10 61 1
