2 9 98
9 2 98
5 9 18
9 5 18
2 16 8
16 2 8
9 21 6
11 2 5
2 15 5
15 2 5
21 9 5
25 2 5
2 3 4
2 11 4
2 14 4
14 2 4
2 19 4
2 25 4
9 31 4
31 9 4
4 2 3
5 7 3
2 12 3
12 2 3
19 2 3
2 26 3
28 9 3
30 9 3
2 4 2
3 2 2
7 5 2
2 13 2
13 2 2
2 5 2
5 2 2
2 18 2
18 2 2
2 24 2
24 2 2
26 2 2
26 25 2
9 28 2
29 2 2
9 30 2
9 32 2
32 9 2
9 39 2
39 9 2
9 40 2
40 9 2
1 2 1
3 4 1
3 5 1
5 6 1
6 5 1
5 8 1
8 5 1
7 10 1
10 2 1
2 17 1
17 2 1
19 20 1
20 2 1
21 11 1
2 22 1
22 23 1
23 9 1
9 22 1
22 9 1
25 26 1
9 27 1
27 2 1
2 27 1
27 9 1
2 28 1
9 29 1
2 29 1
2 30 1
31 32 1
32 31 1
9 33 1
33 34 1
34 35 1
35 36 1
36 37 1
37 38 1
38 9 1
