21 44 57
44 21 53
37 21 16
21 37 15
20 21 12
21 20 11
21 39 10
39 21 10
30 33 7
11 70 7
34 21 6
21 30 5
33 30 5
42 37 5
37 42 5
70 11 5
21 34 5
30 21 4
51 50 4
44 61 4
61 44 4
67 30 4
30 67 4
18 19 3
31 21 3
50 51 3
11 12 2
12 11 2
19 18 2
21 31 2
11 20 2
41 42 2
44 38 2
50 55 2
11 44 2
20 11 2
11 21 2
21 88 2
34 67 2
67 94 2
1 2 1
2 3 1
3 4 1
4 5 1
5 6 1
6 7 1
7 8 1
8 9 1
9 5 1
5 10 1
10 7 1
7 6 1
6 11 1
11 13 1
13 14 1
14 11 1
11 15 1
15 16 1
16 17 1
17 18 1
19 20 1
21 22 1
22 23 1
23 21 1
21 24 1
24 25 1
25 26 1
26 27 1
27 28 1
28 29 1
29 21 1
30 31 1
30 32 1
32 30 1
33 34 1
21 35 1
35 36 1
36 31 1
31 38 1
38 39 1
39 11 1
20 40 1
40 20 1
20 37 1
21 41 1
42 41 1
42 21 1
21 40 1
40 43 1
43 21 1
44 45 1
45 46 1
46 47 1
47 30 1
33 21 1
21 48 1
48 44 1
21 38 1
38 21 1
38 44 1
38 49 1
49 50 1
50 38 1
38 51 1
50 52 1
52 53 1
53 50 1
50 54 1
54 50 1
55 56 1
56 50 1
55 57 1
57 38 1
38 58 1
58 59 1
59 58 1
58 60 1
60 16 1
16 44 1
44 62 1
62 44 1
44 11 1
11 63 1
63 11 1
11 61 1
61 11 1
44 30 1
30 34 1
34 64 1
64 20 1
20 65 1
65 28 1
28 31 1
31 34 1
34 66 1
66 67 1
44 68 1
68 21 1
44 69 1
69 70 1
70 21 1
21 19 1
19 21 1
39 19 1
19 39 1
44 71 1
71 11 1
70 72 1
72 11 1
70 73 1
73 74 1
74 75 1
75 76 1
76 77 1
77 78 1
78 44 1
44 79 1
79 80 1
80 81 1
81 21 1
20 82 1
82 20 1
21 83 1
83 84 1
84 85 1
85 86 1
86 87 1
87 11 1
88 21 1
21 78 1
78 21 1
88 89 1
89 90 1
90 21 1
21 91 1
91 11 1
44 20 1
21 92 1
92 34 1
67 34 1
67 93 1
93 67 1
67 21 1
21 67 1
94 30 1
30 95 1
95 94 1
94 96 1
96 30 1
67 33 1
33 67 1
94 97 1
97 21 1
21 98 1
98 99 1
99 21 1
