11 5 137
5 11 137
34 11 29
11 34 28
5 31 18
10 11 17
31 5 17
11 45 13
11 12 12
23 24 12
24 23 12
11 10 11
45 11 11
11 25 10
30 32 10
12 11 9
25 11 9
32 30 9
5 21 8
21 5 7
31 32 7
5 6 6
6 5 6
11 35 6
11 9 5
9 11 5
11 13 5
11 17 5
17 11 5
32 11 5
35 11 5
12 5 5
40 5 5
13 11 4
15 11 4
9 5 4
5 9 4
5 40 4
22 11 4
32 31 4
32 5 4
11 32 4
4 5 3
11 15 3
5 19 3
19 5 3
5 10 3
11 22 3
31 11 3
5 32 3
70 31 3
5 4 2
11 14 2
5 22 2
22 5 2
29 30 2
14 11 2
11 23 2
5 12 2
45 5 2
32 10 2
11 58 2
58 11 2
11 63 2
31 70 2
10 5 2
1 2 1
2 3 1
3 4 1
5 7 1
7 5 1
5 8 1
8 9 1
9 10 1
14 15 1
15 16 1
16 15 1
11 16 1
16 11 1
11 18 1
18 5 1
19 20 1
20 5 1
21 19 1
5 23 1
23 5 1
11 26 1
26 11 1
25 27 1
27 28 1
28 29 1
30 29 1
30 31 1
31 30 1
5 33 1
33 5 1
5 34 1
35 5 1
23 36 1
36 11 1
23 11 1
5 37 1
37 5 1
5 38 1
38 12 1
12 10 1
5 39 1
39 11 1
11 40 1
11 41 1
41 10 1
13 5 1
5 42 1
42 5 1
11 43 1
43 11 1
5 44 1
44 22 1
11 46 1
46 5 1
45 47 1
47 5 1
5 45 1
11 48 1
48 11 1
34 46 1
46 34 1
11 49 1
49 11 1
31 50 1
50 32 1
10 51 1
51 10 1
10 52 1
52 38 1
38 53 1
53 5 1
5 14 1
11 54 1
54 31 1
31 55 1
55 31 1
5 56 1
56 11 1
11 57 1
57 11 1
11 59 1
59 60 1
60 11 1
5 61 1
61 62 1
62 5 1
63 64 1
64 31 1
11 62 1
62 65 1
65 66 1
66 31 1
31 10 1
63 67 1
67 5 1
5 62 1
62 32 1
32 68 1
68 31 1
32 69 1
69 11 1
11 31 1
32 70 1
5 70 1
70 32 1
5 71 1
71 72 1
72 31 1
31 73 1
73 22 1
22 38 1
38 11 1
11 74 1
74 11 1
11 75 1
75 11 1
11 76 1
76 77 1
77 78 1
78 79 1
79 11 1
11 80 1
80 31 1
5 81 1
81 11 1
11 82 1
82 11 1
5 83 1
83 11 1
11 84 1
84 5 1
5 85 1
85 5 1
