3 9 152
9 3 148
31 9 30
9 31 29
3 28 19
28 3 18
8 9 16
9 44 14
9 8 13
44 9 13
9 10 12
20 21 12
21 20 12
37 3 11
10 9 10
9 22 10
27 29 10
22 9 9
29 27 9
3 37 9
13 9 7
28 29 7
9 13 6
9 7 5
3 14 5
14 3 5
10 3 5
43 9 5
29 28 5
29 9 5
9 29 5
11 9 4
9 11 4
7 9 4
9 12 4
9 33 4
7 3 4
3 7 4
54 9 4
3 4 3
5 3 3
12 13 3
12 9 3
33 9 3
3 10 3
8 3 3
9 43 3
9 54 3
28 9 3
29 3 3
3 29 3
63 28 3
4 3 2
3 5 2
3 6 2
13 12 2
3 19 2
19 3 2
26 27 2
9 20 2
44 3 2
9 48 2
48 9 2
29 8 2
8 49 2
49 8 2
9 53 2
53 9 2
9 58 2
57 29 2
9 28 2
28 63 2
3 8 2
1 2 1
2 3 1
4 5 1
6 7 1
7 8 1
7 11 1
3 15 1
15 3 1
3 16 1
16 3 1
3 17 1
17 18 1
18 3 1
6 20 1
20 3 1
9 23 1
23 9 1
22 24 1
24 25 1
25 24 1
24 26 1
27 26 1
27 28 1
28 27 1
29 6 1
6 30 1
30 3 1
3 31 1
9 32 1
32 9 1
33 3 1
20 34 1
34 9 1
20 9 1
9 35 1
35 3 1
10 8 1
3 36 1
36 10 1
9 37 1
9 38 1
38 37 1
3 39 1
39 9 1
11 3 1
3 40 1
40 3 1
9 41 1
41 9 1
3 42 1
42 43 1
3 43 1
43 3 1
3 44 1
9 45 1
45 9 1
31 46 1
46 31 1
9 47 1
47 9 1
8 50 1
50 3 1
9 51 1
51 28 1
3 52 1
52 3 1
9 55 1
55 53 1
53 56 1
56 54 1
3 53 1
53 57 1
57 3 1
58 59 1
59 28 1
9 57 1
57 60 1
60 61 1
61 28 1
28 8 1
58 8 1
8 57 1
28 57 1
29 62 1
62 9 1
29 63 1
29 64 1
64 3 1
3 63 1
63 29 1
3 65 1
65 66 1
66 28 1
28 66 1
66 67 1
67 43 1
9 68 1
68 9 1
9 69 1
69 70 1
70 71 1
71 3 1
3 72 1
72 9 1
9 73 1
73 9 1
3 74 1
74 9 1
9 75 1
75 3 1
3 76 1
76 3 1
