12 2 27
2 12 27
12 6 27
6 2 25
12 25 21
25 12 20
6 12 19
2 3 13
14 12 13
2 14 13
2 25 12
2 6 12
12 14 11
28 12 11
3 14 10
12 28 10
14 2 9
3 2 9
12 3 8
14 3 8
25 2 8
4 6 7
19 12 7
6 19 7
3 4 6
12 19 6
19 6 6
14 25 6
25 6 6
25 14 6
4 2 5
3 19 5
14 4 5
2 4 5
25 3 5
19 14 4
3 12 4
2 28 4
5 6 3
11 12 3
4 14 3
4 19 3
16 12 3
6 4 3
3 25 3
25 19 3
19 25 3
6 25 3
28 2 3
12 4 2
2 19 2
19 3 2
14 19 2
14 31 2
12 33 2
19 2 2
4 12 2
12 47 2
6 3 2
3 6 2
14 6 2
56 2 2
2 59 2
56 12 2
39 25 2
18 25 2
6 16 2
40 6 2
6 78 2
78 28 2
12 78 2
1 2 1
4 5 1
6 7 1
7 8 1
8 3 1
3 9 1
9 3 1
3 10 1
10 3 1
3 11 1
3 13 1
13 12 1
4 11 1
3 15 1
15 13 1
13 16 1
16 17 1
17 18 1
18 4 1
19 20 1
20 12 1
12 21 1
21 2 1
14 22 1
22 23 1
23 12 1
6 24 1
24 25 1
25 26 1
26 19 1
19 4 1
19 27 1
27 2 1
28 29 1
29 6 1
6 30 1
30 14 1
31 30 1
30 2 1
31 6 1
6 32 1
32 16 1
33 6 1
6 18 1
18 6 1
6 34 1
34 3 1
14 35 1
35 4 1
2 34 1
34 2 1
19 21 1
21 19 1
12 36 1
36 12 1
6 37 1
37 12 1
12 5 1
6 21 1
21 3 1
4 38 1
38 14 1
14 39 1
39 2 1
2 5 1
4 40 1
40 11 1
6 5 1
5 19 1
19 24 1
24 19 1
6 14 1
12 41 1
41 42 1
42 3 1
3 43 1
43 12 1
19 44 1
44 19 1
19 45 1
45 25 1
12 46 1
46 14 1
47 4 1
19 34 1
34 4 1
4 48 1
48 12 1
19 28 1
28 49 1
49 14 1
25 50 1
50 43 1
43 5 1
5 3 1
25 51 1
51 52 1
52 3 1
2 53 1
53 12 1
25 54 1
54 55 1
55 12 1
25 56 1
25 57 1
57 25 1
3 45 1
45 28 1
28 58 1
58 6 1
6 59 1
59 60 1
60 2 1
59 6 1
4 54 1
54 4 1
4 25 1
2 61 1
61 25 1
25 55 1
55 18 1
18 12 1
12 62 1
62 3 1
2 56 1
12 63 1
63 42 1
42 12 1
47 3 1
6 64 1
64 39 1
2 40 1
40 45 1
45 12 1
25 40 1
40 39 1
25 42 1
42 56 1
14 33 1
33 65 1
65 35 1
35 2 1
3 23 1
23 2 1
33 2 1
12 59 1
59 2 1
59 14 1
14 66 1
66 56 1
14 18 1
12 35 1
35 25 1
25 39 1
39 67 1
67 18 1
2 68 1
68 2 1
2 69 1
69 40 1
12 69 1
69 2 1
2 70 1
70 40 1
40 12 1
12 39 1
39 12 1
28 6 1
6 28 1
12 71 1
71 12 1
2 72 1
72 40 1
6 72 1
72 2 1
2 73 1
73 6 1
6 74 1
74 12 1
12 75 1
75 12 1
3 76 1
76 6 1
2 77 1
77 6 1
28 78 1
78 79 1
79 6 1
2 80 1
80 81 1
81 5 1
5 82 1
82 12 1
2 83 1
83 84 1
84 12 1
78 12 1
78 6 1
6 85 1
