3 2 97
2 3 92
3 10 80
10 3 80
11 10 7
3 31 7
7 5 6
5 9 6
11 3 6
3 11 6
2 5 5
3 5 5
5 7 5
9 7 5
10 11 5
31 3 5
3 7 4
9 3 4
10 15 4
34 3 4
7 2 3
7 9 3
2 9 3
3 13 3
15 10 3
5 18 3
28 3 3
31 10 3
3 33 3
33 3 3
3 34 3
2 22 3
22 3 3
5 2 2
5 3 2
7 3 2
9 2 2
13 3 2
5 17 2
17 5 2
18 5 2
3 28 2
29 28 2
10 30 2
30 3 2
10 38 2
38 10 2
1 2 1
2 1 1
1 3 1
2 4 1
4 3 1
5 6 1
6 2 1
2 7 1
7 8 1
8 7 1
9 5 1
10 12 1
12 3 1
13 14 1
14 11 1
10 16 1
16 3 1
15 3 1
2 10 1
10 2 1
7 10 1
18 19 1
19 20 1
20 19 1
19 11 1
10 20 1
20 10 1
10 21 1
21 10 1
10 22 1
22 13 1
13 23 1
23 24 1
24 23 1
23 25 1
25 26 1
26 25 1
25 3 1
3 27 1
27 3 1
3 29 1
28 29 1
30 10 1
3 30 1
3 32 1
32 3 1
10 31 1
2 34 1
34 2 1
2 18 1
18 3 1
3 35 1
35 22 1
22 2 1
22 34 1
34 18 1
18 22 1
3 18 1
18 35 1
35 34 1
3 36 1
36 33 1
33 37 1
37 10 1
10 39 1
39 40 1
