1 2 39
2 1 36
12 3 9
13 3 8
11 12 7
3 12 7
25 26 7
3 2 6
2 3 6
3 13 6
20 12 6
3 15 6
12 20 5
15 3 5
26 25 5
3 11 4
12 11 4
1 3 3
2 5 3
2 13 3
3 1 3
19 3 3
3 19 3
3 22 3
27 25 3
5 2 2
11 3 2
12 2 2
3 14 2
14 2 2
12 13 2
13 11 2
11 20 2
22 3 2
3 23 2
23 20 2
24 3 2
26 27 2
2 4 1
4 2 1
5 6 1
6 2 1
2 7 1
7 8 1
8 7 1
7 2 1
2 8 1
8 9 1
9 3 1
3 9 1
9 1 1
2 10 1
10 2 1
11 2 1
2 12 1
13 14 1
14 3 1
2 15 1
15 12 1
12 16 1
16 12 1
12 17 1
17 2 1
2 18 1
18 19 1
19 12 1
2 11 1
20 11 1
12 21 1
21 12 1
22 21 1
21 3 1
23 3 1
20 23 1
20 3 1
15 24 1
3 24 1
2 25 1
25 27 1
25 1 1
2 26 1
26 2 1
