2 3 39
3 2 36
13 4 9
14 4 8
12 13 7
4 13 7
25 26 7
4 3 6
3 4 6
4 14 6
20 13 6
13 20 5
26 25 5
4 12 4
13 12 4
2 4 3
3 6 3
3 14 3
4 2 3
19 4 3
4 19 3
4 22 3
27 25 3
6 3 2
12 4 2
3 13 2
13 3 2
4 15 2
15 3 2
13 14 2
14 12 2
12 20 2
22 4 2
4 23 2
23 20 2
26 27 2
1 2 1
3 5 1
5 3 1
6 7 1
7 3 1
3 8 1
8 9 1
9 8 1
8 3 1
3 9 1
9 10 1
10 4 1
4 10 1
10 2 1
3 11 1
11 3 1
12 3 1
14 15 1
15 4 1
13 16 1
16 13 1
13 17 1
17 3 1
3 18 1
18 19 1
19 13 1
3 12 1
20 12 1
13 21 1
21 13 1
22 21 1
21 4 1
23 4 1
20 23 1
20 4 1
4 24 1
24 4 1
3 25 1
25 27 1
25 2 1
3 26 1
26 3 1
