2 9 78
9 2 75
2 15 53
15 2 53
2 1 24
1 2 23
2 12 13
12 2 12
6 2 10
2 14 10
14 2 10
2 4 9
4 2 9
18 2 8
2 18 7
9 4 6
2 6 6
4 9 6
14 9 6
8 9 5
9 14 5
9 18 5
2 8 5
9 7 4
8 2 4
18 9 4
2 5 3
7 2 3
9 8 3
16 9 3
20 2 3
2 20 3
2 21 3
21 2 3
7 8 2
13 2 2
9 16 2
22 2 2
8 15 2
15 8 2
24 2 2
9 6 2
2 3 1
3 2 1
5 4 1
5 6 1
5 2 1
4 6 1
6 7 1
8 7 1
2 7 1
7 9 1
9 10 1
10 9 1
9 11 1
11 9 1
9 13 1
2 13 1
14 4 1
4 14 1
9 17 1
17 9 1
2 16 1
9 19 1
19 2 1
18 20 1
21 1 1
1 21 1
1 14 1
2 22 1
2 23 1
23 12 1
12 6 1
15 12 1
12 15 1
2 24 1
20 15 1
15 25 1
25 9 1
7 6 1
2 26 1
26 27 1
27 9 1
12 24 1
9 22 1
1 18 1
6 9 1
9 20 1
20 28 1
