4 1 63
1 5 61
1 4 60
5 1 54
8 1 51
1 8 50
1 7 24
7 1 23
6 1 18
1 6 15
5 6 11
5 7 10
6 5 9
3 1 8
1 3 8
6 8 7
1 16 7
7 5 6
7 6 6
16 1 6
8 5 5
8 6 5
1 15 5
19 1 5
7 8 4
15 1 4
17 1 4
1 18 4
1 19 4
6 7 3
5 4 3
5 8 3
8 7 3
5 17 3
18 1 3
1 2 2
4 5 2
5 9 2
9 5 2
10 5 2
1 11 2
5 12 2
12 5 2
1 13 2
13 1 2
16 7 2
8 17 2
18 4 2
2 1 1
2 3 1
3 4 1
9 1 1
1 9 1
1 10 1
5 10 1
11 5 1
7 12 1
12 1 1
13 6 1
6 13 1
7 14 1
14 1 1
7 16 1
17 8 1
1 17 1
17 5 1
17 6 1
6 17 1
4 8 1
8 4 1
4 18 1
1 20 1
20 1 1
1 21 1
21 3 1
3 19 1
11 6 1
15 11 1
11 8 1
6 11 1
11 1 1
5 22 1
22 1 1
