15 1 42
19 1 42
1 19 42
1 15 40
1 12 22
12 1 21
1 2 14
2 1 14
1 14 14
14 1 11
30 15 10
15 30 8
1 10 6
15 12 6
12 15 6
20 1 6
1 20 6
1 30 6
10 1 5
1 26 5
27 1 5
1 27 5
18 1 4
21 1 4
26 15 4
26 1 4
28 1 4
30 1 4
11 1 3
14 12 3
12 14 3
1 18 3
1 21 3
24 22 3
15 26 3
5 1 2
1 7 2
1 8 2
1 11 2
14 15 2
14 19 2
19 15 2
19 20 2
20 19 2
22 24 2
15 27 2
27 15 2
15 11 2
11 28 2
1 28 2
12 28 2
15 19 2
1 3 1
3 1 1
1 4 1
4 1 1
1 5 1
1 6 1
6 1 1
7 5 1
7 1 1
8 1 1
8 6 1
6 9 1
9 1 1
10 11 1
12 13 1
13 12 1
15 16 1
16 17 1
17 14 1
15 18 1
18 12 1
12 19 1
19 21 1
1 22 1
22 23 1
23 24 1
22 1 1
15 25 1
25 15 1
11 15 1
28 11 1
28 15 1
19 12 1
15 14 1
14 18 1
15 29 1
29 15 1
15 31 1
31 15 1
1 32 1
32 1 1
19 33 1
