4 2 48
2 4 48
27 2 36
2 27 32
2 19 25
19 2 22
53 2 19
2 53 18
2 8 17
8 2 17
6 2 15
2 6 15
7 2 13
2 7 12
2 9 10
9 2 9
2 14 7
26 2 7
14 2 6
2 26 6
2 28 6
28 2 4
2 38 4
2 52 4
11 2 3
2 16 3
16 2 3
2 17 3
2 30 3
30 2 3
38 2 3
40 2 3
2 40 3
52 2 3
2 11 2
17 11 2
17 2 2
27 29 2
29 27 2
32 19 2
43 27 2
44 2 2
28 27 2
1 2 1
2 3 1
3 4 1
4 5 1
5 6 1
2 10 1
10 2 1
6 7 1
2 12 1
12 13 1
13 2 1
2 15 1
15 2 1
11 17 1
2 18 1
18 2 1
19 20 1
20 2 1
2 21 1
21 2 1
2 22 1
22 2 1
2 23 1
23 4 1
4 24 1
24 2 1
4 25 1
25 2 1
28 26 1
26 27 1
27 26 1
2 31 1
31 23 1
23 2 1
2 32 1
19 33 1
33 19 1
19 34 1
34 2 1
2 35 1
35 4 1
9 4 1
4 36 1
36 2 1
4 31 1
31 4 1
19 27 1
2 37 1
37 2 1
38 39 1
39 2 1
14 40 1
40 41 1
41 2 1
2 42 1
42 27 1
2 43 1
27 43 1
27 44 1
2 44 1
19 28 1
28 45 1
45 27 1
27 28 1
27 40 1
40 46 1
46 2 1
2 47 1
47 27 1
2 48 1
48 19 1
19 32 1
19 49 1
49 2 1
2 50 1
50 51 1
51 2 1
52 53 1
