17 16 31
16 17 29
15 3 22
3 15 17
16 15 16
22 16 15
3 22 14
22 3 13
15 16 12
3 16 12
16 22 12
22 20 10
3 2 9
2 3 9
20 22 9
26 16 9
33 16 9
16 25 8
16 33 8
16 3 8
25 26 6
23 22 5
27 26 5
16 26 5
25 16 5
22 23 4
22 32 4
33 17 4
15 34 4
4 3 3
26 25 3
30 16 3
16 30 3
32 22 3
17 33 3
34 15 3
1 3 2
3 4 2
4 2 2
2 4 2
16 18 2
20 16 2
16 21 2
21 16 2
26 27 2
16 27 2
27 22 2
16 20 2
16 32 2
34 16 2
26 22 2
1 2 1
2 1 1
3 1 1
3 5 1
5 4 1
3 6 1
6 4 1
4 7 1
7 3 1
3 8 1
8 9 1
9 3 1
3 10 1
10 11 1
11 2 1
2 12 1
12 2 1
2 13 1
13 14 1
14 15 1
18 16 1
18 19 1
19 15 1
16 19 1
19 20 1
21 22 1
23 24 1
24 23 1
20 25 1
25 27 1
16 28 1
28 29 1
29 30 1
30 17 1
16 31 1
31 17 1
32 33 1
17 15 1
22 15 1
15 22 1
32 16 1
16 34 1
15 27 1
22 26 1
22 35 1
35 16 1
16 36 1
36 21 1
3 25 1
26 3 1
25 17 1
17 37 1
37 15 1
15 38 1
38 25 1
25 22 1
22 27 1
32 23 1
20 33 1
16 39 1
39 40 1
