7 2 56
2 7 55
8 7 30
7 8 30
22 8 25
8 5 24
5 8 22
8 22 21
10 5 20
5 10 18
18 2 12
2 18 12
7 22 10
8 6 10
6 8 10
10 17 8
18 19 7
19 18 7
22 7 7
17 10 6
2 19 5
19 2 5
20 10 4
10 20 4
10 21 4
21 10 4
8 17 4
17 8 4
7 26 4
26 7 4
4 5 3
2 4 3
2 8 3
5 7 3
5 22 3
2 3 2
6 7 2
4 11 2
8 2 2
2 13 2
13 2 2
14 16 2
16 14 2
22 5 2
7 6 2
17 12 2
23 10 2
20 21 2
7 24 2
8 18 2
1 2 1
3 2 1
3 4 1
5 6 1
7 4 1
4 7 1
5 2 1
5 4 1
4 9 1
9 10 1
10 4 1
11 2 1
11 12 1
12 2 1
2 14 1
14 2 1
13 14 1
14 15 1
15 14 1
16 15 1
15 16 1
14 13 1
7 10 1
17 18 1
18 20 1
10 8 1
8 19 1
19 7 1
6 10 1
17 7 1
7 17 1
12 17 1
12 7 1
8 10 1
10 23 1
21 20 1
21 23 1
24 25 1
25 19 1
18 10 1
17 5 1
5 17 1
24 7 1
26 8 1
8 26 1
26 19 1
19 26 1
19 8 1
18 7 1
