6 7 24
3 10 21
10 3 20
7 6 19
13 7 16
7 13 14
2 6 13
6 2 12
12 8 12
9 3 11
5 7 10
7 5 10
2 3 9
3 2 9
3 9 9
3 7 9
8 13 9
5 6 8
6 3 8
7 3 8
10 7 8
7 10 8
6 5 8
7 2 8
2 18 8
8 12 8
21 2 8
2 21 8
2 7 8
30 6 8
3 5 7
10 6 7
7 12 7
6 30 7
5 3 6
3 6 6
6 10 6
13 12 6
12 7 6
7 22 6
18 2 6
5 10 5
13 8 5
22 7 5
28 2 5
6 31 5
2 33 5
33 2 5
10 5 4
8 6 4
24 25 4
25 24 4
31 6 4
27 2 4
8 7 3
12 13 3
17 3 3
7 8 3
6 8 3
2 28 3
4 5 2
7 4 2
4 2 2
2 4 2
3 17 2
12 5 2
2 27 2
31 30 2
1 2 1
3 4 1
4 8 1
4 9 1
10 11 1
11 10 1
10 4 1
2 10 1
10 12 1
13 4 1
4 3 1
7 14 1
14 13 1
7 15 1
15 9 1
5 16 1
16 5 1
5 17 1
18 6 1
6 19 1
19 6 1
6 12 1
13 5 1
5 12 1
5 13 1
13 6 1
6 13 1
6 20 1
20 21 1
21 7 1
3 13 1
22 6 1
12 6 1
7 23 1
23 21 1
21 6 1
5 24 1
24 7 1
7 24 1
24 5 1
3 26 1
26 27 1
27 18 1
27 28 1
7 29 1
29 6 1
30 31 1
6 28 1
5 27 1
18 27 1
7 27 1
18 30 1
30 32 1
32 33 1
33 6 1
6 34 1
34 6 1
5 35 1
35 6 1
2 34 1
34 33 1
33 36 1
