5 9 90
9 5 89
16 5 86
5 16 86
27 5 55
5 27 53
5 3 44
9 48 43
3 5 42
48 9 42
5 41 40
41 5 35
48 5 34
5 26 32
34 5 30
5 34 28
26 41 28
5 13 24
13 5 24
26 5 23
5 48 21
41 48 20
26 27 18
27 26 18
41 26 15
48 27 15
27 48 14
48 34 14
26 68 13
68 26 13
48 98 13
34 48 13
5 68 12
98 48 12
16 48 11
48 36 11
68 5 10
5 74 10
74 5 10
36 48 10
48 41 9
64 26 9
92 5 9
48 92 9
92 48 9
5 64 8
48 16 8
5 92 8
98 5 8
3 13 7
13 3 7
36 5 7
41 42 6
42 41 6
5 54 6
26 64 6
64 5 6
5 98 6
5 52 5
52 5 5
48 74 5
74 48 5
5 36 5
5 15 4
15 5 4
17 5 4
16 36 4
36 16 4
5 57 4
5 40 4
5 77 4
92 3 4
3 92 4
5 17 3
36 15 3
26 57 3
57 26 3
57 5 3
54 26 3
77 5 3
41 16 3
9 3 2
18 5 2
5 21 2
21 5 2
25 27 2
29 3 2
5 35 2
35 5 2
15 36 2
40 5 2
3 16 2
48 26 2
26 48 2
52 26 2
26 16 2
54 5 2
16 9 2
40 3 2
34 79 2
79 34 2
54 48 2
48 54 2
3 91 2
41 61 2
61 111 2
1 2 1
2 3 1
3 2 1
2 4 1
4 5 1
5 6 1
6 5 1
5 4 1
4 7 1
7 8 1
8 9 1
9 10 1
10 5 1
3 11 1
11 12 1
12 5 1
13 14 1
14 5 1
15 16 1
9 16 1
5 18 1
16 18 1
16 19 1
19 13 1
5 20 1
20 5 1
9 22 1
22 5 1
16 23 1
23 17 1
16 24 1
24 16 1
16 25 1
25 16 1
3 27 1
5 25 1
27 28 1
28 29 1
3 30 1
30 29 1
29 31 1
31 29 1
3 32 1
32 3 1
3 29 1
29 33 1
33 34 1
13 34 1
34 13 1
5 37 1
37 5 1
9 29 1
29 9 1
5 38 1
38 5 1
9 39 1
39 40 1
40 41 1
41 43 1
43 41 1
41 3 1
3 40 1
16 3 1
5 44 1
44 45 1
45 3 1
3 46 1
46 47 1
47 48 1
41 49 1
49 41 1
41 50 1
50 41 1
41 51 1
51 41 1
26 52 1
41 52 1
26 53 1
53 41 1
54 52 1
5 55 1
55 5 1
52 48 1
48 56 1
56 41 1
57 48 1
5 58 1
58 5 1
41 59 1
59 13 1
13 41 1
26 60 1
60 54 1
26 61 1
61 26 1
5 62 1
62 5 1
26 25 1
25 5 1
5 63 1
63 41 1
27 41 1
27 25 1
48 64 1
64 65 1
65 64 1
41 66 1
66 64 1
41 67 1
67 5 1
64 41 1
13 26 1
68 69 1
69 68 1
54 70 1
70 5 1
68 54 1
54 41 1
41 71 1
71 5 1
5 72 1
72 5 1
68 73 1
73 26 1
41 75 1
75 5 1
40 76 1
76 5 1
77 27 1
5 78 1
78 5 1
5 79 1
79 5 1
5 39 1
39 19 1
19 16 1
16 80 1
80 5 1
5 81 1
81 5 1
48 82 1
82 48 1
16 41 1
9 83 1
83 5 1
5 84 1
84 48 1
5 85 1
85 5 1
9 86 1
86 9 1
5 87 1
87 48 1
41 9 1
48 25 1
25 41 1
41 88 1
88 5 1
54 9 1
41 89 1
89 9 1
5 90 1
90 5 1
91 3 1
91 92 1
5 93 1
93 5 1
5 94 1
94 13 1
13 48 1
92 95 1
95 92 1
48 96 1
96 48 1
48 97 1
97 48 1
41 23 1
23 26 1
5 19 1
19 41 1
41 54 1
41 98 1
98 99 1
99 98 1
48 60 1
60 36 1
36 100 1
100 48 1
48 101 1
101 5 1
26 36 1
48 102 1
102 36 1
5 103 1
103 5 1
5 104 1
104 16 1
41 105 1
105 48 1
48 106 1
106 48 1
48 78 1
78 48 1
41 34 1
34 41 1
41 13 1
3 107 1
107 13 1
13 9 1
5 108 1
108 109 1
109 40 1
40 110 1
110 41 1
111 41 1
111 5 1
3 64 1
64 3 1
3 112 1
