9 3 49
3 9 47
6 3 20
9 7 19
3 6 19
7 9 18
7 3 16
6 7 15
7 14 14
16 8 14
3 7 14
8 6 13
14 7 12
8 16 12
7 6 11
7 11 11
6 8 11
11 7 10
12 7 9
8 11 8
3 16 8
2 3 7
9 6 7
11 8 7
16 3 7
7 12 7
6 9 6
3 2 6
3 15 6
3 19 6
6 11 5
11 6 5
13 6 5
6 13 5
15 3 5
19 3 5
11 18 4
20 9 4
6 24 4
5 6 3
15 9 3
18 11 3
9 20 3
21 3 3
22 21 3
24 6 3
6 5 2
9 5 2
11 12 2
9 15 2
11 16 2
11 17 2
17 11 2
3 22 2
3 21 2
21 22 2
3 24 2
24 3 2
7 25 2
1 2 1
3 4 1
4 3 1
3 5 1
5 8 1
8 5 1
5 9 1
5 2 1
2 4 1
4 2 1
2 10 1
10 11 1
12 11 1
11 2 1
2 6 1
7 13 1
13 7 1
14 9 1
3 11 1
16 11 1
18 9 1
19 20 1
3 12 1
7 8 1
9 21 1
22 3 1
21 9 1
3 23 1
23 3 1
14 6 1
24 9 1
25 7 1
25 3 1
