2 3 32
3 2 32
2 4 26
4 2 25
6 2 17
2 8 15
3 6 14
8 2 13
2 6 13
6 3 10
15 2 10
2 15 9
22 2 9
2 22 8
29 3 8
4 3 7
3 29 7
6 22 7
3 11 6
12 3 6
3 12 6
3 13 6
22 6 6
2 9 5
11 3 5
13 3 5
25 4 5
3 4 4
2 5 4
9 2 4
6 12 4
12 6 4
9 8 4
18 19 4
23 2 4
4 25 4
8 3 3
12 2 3
2 12 3
19 18 3
22 23 3
2 23 3
14 4 3
4 8 3
2 11 3
5 3 2
5 2 2
11 6 2
3 9 2
8 9 2
8 4 2
20 21 2
21 18 2
23 22 2
8 25 2
4 14 2
2 25 2
2 16 2
11 2 2
2 28 2
32 2 2
2 33 2
33 2 2
1 2 1
3 5 1
6 7 1
7 6 1
9 4 1
3 10 1
10 2 1
5 9 1
2 14 1
14 2 1
4 15 1
15 3 1
3 15 1
4 16 1
16 17 1
17 18 1
19 20 1
18 21 1
18 20 1
21 20 1
20 22 1
2 24 1
24 4 1
25 14 1
25 2 1
25 26 1
26 2 1
2 27 1
27 2 1
16 2 1
16 28 1
28 16 1
16 3 1
13 6 1
9 3 1
6 4 1
6 29 1
3 30 1
30 6 1
2 31 1
31 2 1
23 4 1
4 23 1
28 2 1
28 32 1
2 32 1
