17 3 39
3 4 38
3 17 37
4 3 36
8 17 34
17 8 31
3 8 29
4 5 25
5 4 25
8 3 24
13 26 17
26 13 17
3 7 12
7 3 10
8 7 10
7 17 9
7 8 8
17 7 8
13 8 7
8 13 7
4 6 5
7 25 5
25 7 5
6 5 4
7 13 4
18 7 4
7 5 4
6 4 3
5 9 3
13 7 3
3 15 3
15 3 3
7 18 3
13 3 3
5 6 2
8 4 2
7 14 2
7 4 2
4 7 2
5 7 2
4 21 2
22 23 2
23 22 2
22 24 2
24 22 2
5 3 2
5 8 2
1 2 1
2 3 1
3 2 1
2 4 1
6 3 1
8 9 1
9 8 1
7 10 1
10 7 1
8 6 1
9 5 1
9 4 1
9 3 1
4 8 1
4 11 1
11 7 1
7 12 1
12 7 1
8 12 1
12 8 1
14 3 1
4 13 1
8 5 1
14 16 1
16 17 1
17 18 1
17 19 1
19 17 1
17 20 1
20 3 1
4 20 1
20 8 1
21 4 1
21 22 1
22 4 1
3 14 1
14 7 1
3 5 1
3 13 1
7 27 1
27 3 1
17 13 1
13 28 1
28 29 1
29 28 1
