10 9 28
9 10 26
20 4 15
4 20 15
9 4 14
6 10 13
10 6 13
4 9 12
22 17 11
15 10 10
4 6 9
10 15 9
8 23 9
23 8 8
6 4 8
4 10 7
6 13 7
17 22 7
4 5 6
11 13 6
13 10 6
13 6 6
10 14 6
14 10 6
10 11 5
10 4 5
4 13 5
10 16 5
17 8 5
25 29 5
31 4 5
4 31 5
5 4 4
13 11 4
10 13 4
8 17 4
6 25 4
25 6 4
11 4 3
13 4 3
16 10 3
18 10 3
17 21 3
10 27 3
27 10 3
29 15 3
15 30 3
29 25 3
9 32 3
5 6 2
11 10 2
10 5 2
11 6 2
16 15 2
9 12 2
12 10 2
24 8 2
8 24 2
10 26 2
26 10 2
15 29 2
30 15 2
29 22 2
32 9 2
21 17 2
6 11 2
1 2 1
2 3 1
3 4 1
6 7 1
7 8 1
8 6 1
6 9 1
5 10 1
6 12 1
12 4 1
13 14 1
14 6 1
11 14 1
14 11 1
16 11 1
13 16 1
15 16 1
16 17 1
17 9 1
12 9 1
10 12 1
5 18 1
10 19 1
19 10 1
10 20 1
20 17 1
21 8 1
8 22 1
22 23 1
23 22 1
23 13 1
13 24 1
24 6 1
6 18 1
10 18 1
9 22 1
17 28 1
28 29 1
29 28 1
28 25 1
30 25 1
17 29 1
17 31 1
31 10 1
32 33 1
33 9 1
6 29 1
29 17 1
17 11 1
13 34 1
34 35 1
35 4 1
4 35 1
35 9 1
