5 3 30
3 5 26
3 14 16
14 3 16
15 7 15
7 15 14
3 17 13
17 3 13
11 3 12
3 11 12
15 5 12
5 15 9
7 8 9
8 7 9
7 5 7
5 7 7
7 13 7
13 7 7
14 5 7
5 14 6
7 14 6
3 15 5
15 20 5
20 15 5
14 7 5
13 15 5
8 15 5
3 9 4
9 3 4
15 14 4
15 13 4
22 15 4
15 8 4
3 7 3
3 10 3
5 9 3
9 5 3
13 5 3
14 15 3
15 10 3
15 3 3
15 22 3
29 24 3
24 28 3
3 4 2
7 3 2
8 3 2
10 11 2
13 3 2
14 13 2
10 23 2
24 10 2
10 3 2
3 26 2
5 28 2
28 24 2
24 29 2
28 29 2
10 15 2
1 2 1
2 3 1
4 5 1
5 6 1
6 3 1
4 8 1
9 8 1
8 10 1
11 9 1
5 12 1
12 13 1
3 16 1
16 3 1
3 18 1
18 14 1
14 17 1
17 14 1
14 19 1
19 3 1
5 21 1
21 5 1
3 13 1
3 22 1
23 10 1
10 24 1
23 25 1
25 23 1
23 24 1
24 25 1
25 24 1
10 17 1
17 8 1
3 8 1
7 10 1
10 14 1
26 3 1
11 27 1
27 15 1
29 28 1
28 13 1
13 30 1
30 13 1
5 13 1
28 5 1
26 5 1
5 11 1
11 15 1
10 22 1
22 31 1
31 22 1
22 10 1
