16 4 28
4 20 23
4 16 22
20 4 22
3 16 22
16 3 20
4 3 18
3 4 17
5 16 17
4 5 16
16 5 15
3 8 14
20 16 14
8 3 13
5 4 13
16 20 11
3 20 9
20 3 8
16 29 7
7 3 6
5 12 6
3 7 5
12 5 5
4 24 5
24 16 5
29 16 5
2 3 4
10 3 4
15 9 4
3 24 4
3 2 3
9 3 3
3 9 3
16 17 3
9 23 3
23 9 3
24 4 3
3 26 3
5 3 3
29 20 3
9 15 3
5 6 2
2 9 2
3 11 2
11 3 2
17 16 2
4 18 2
18 4 2
24 20 2
24 3 2
20 5 2
26 3 2
26 27 2
31 9 2
5 32 2
32 5 2
1 2 1
6 7 1
8 2 1
9 10 1
3 6 1
6 10 1
3 12 1
12 7 1
7 11 1
11 10 1
3 10 1
3 13 1
13 3 1
3 14 1
14 15 1
9 16 1
17 5 1
16 19 1
19 5 1
16 2 1
9 21 1
21 3 1
3 22 1
22 5 1
12 8 1
8 9 1
9 24 1
20 24 1
16 24 1
5 20 1
5 25 1
25 3 1
27 26 1
27 28 1
28 3 1
4 29 1
29 4 1
20 29 1
20 30 1
30 4 1
16 15 1
15 31 1
9 31 1
9 2 1
2 5 1
3 5 1
6 4 1
4 33 1
