18 2 40
2 18 38
2 5 27
18 5 27
5 2 25
5 18 23
2 33 18
9 23 17
33 2 17
3 7 16
18 7 16
23 9 16
7 3 15
3 18 14
7 18 14
18 3 14
2 3 11
5 3 11
3 22 10
3 2 9
18 9 9
9 18 9
6 3 8
3 6 8
7 9 7
9 3 7
3 5 7
22 3 7
9 7 6
5 9 5
3 9 5
2 25 5
18 12 5
3 29 5
9 2 4
9 5 4
25 2 4
12 18 4
9 24 3
24 9 3
12 5 3
5 12 3
27 28 3
29 3 3
8 2 3
2 6 3
2 35 3
3 4 2
4 2 2
11 2 2
3 10 2
10 18 2
22 18 2
23 26 2
26 23 2
28 27 2
29 18 2
6 2 2
29 2 2
2 29 2
2 8 2
35 2 2
3 36 2
14 5 2
1 2 1
4 3 1
5 4 1
4 6 1
7 6 1
6 4 1
2 7 1
7 4 1
4 8 1
8 9 1
9 4 1
4 10 1
10 11 1
2 4 1
2 12 1
12 4 1
4 5 1
5 6 1
4 13 1
13 14 1
14 2 1
2 15 1
15 16 1
16 17 1
17 3 1
2 19 1
19 5 1
5 19 1
19 11 1
2 20 1
20 18 1
6 18 1
9 6 1
6 9 1
6 21 1
21 9 1
22 5 1
5 22 1
22 10 1
10 22 1
22 9 1
23 3 1
2 9 1
18 25 1
25 20 1
20 2 1
5 23 1
23 5 1
12 27 1
28 5 1
29 5 1
5 29 1
25 7 1
7 8 1
6 30 1
30 12 1
12 29 1
29 12 1
12 31 1
31 29 1
29 32 1
32 2 1
33 9 1
2 34 1
34 2 1
35 18 1
36 9 1
36 3 1
5 10 1
10 25 1
25 37 1
37 38 1
38 39 1
39 40 1
40 39 1
39 18 1
7 39 1
39 41 1
41 39 1
39 14 1
5 14 1
5 39 1
