12 7 29
7 12 28
10 3 24
12 13 23
3 10 23
3 4 22
13 12 20
4 3 20
17 7 18
7 3 17
7 17 15
3 7 14
7 6 11
6 7 9
11 7 7
8 12 6
21 12 6
12 17 5
12 8 5
7 11 5
7 19 5
19 8 5
8 19 5
13 15 4
15 13 4
17 12 4
18 7 4
12 18 4
31 4 4
3 12 3
7 18 3
18 12 3
19 7 3
12 21 3
12 22 3
13 21 3
16 15 3
4 7 3
13 14 2
13 3 2
19 6 2
6 19 2
6 8 2
22 12 2
26 27 2
3 17 2
4 31 2
7 4 2
4 12 2
8 18 2
18 8 2
8 4 2
4 8 2
1 2 1
2 3 1
4 5 1
5 3 1
3 6 1
6 3 1
3 8 1
8 5 1
5 9 1
9 10 1
10 9 1
9 11 1
11 12 1
12 5 1
5 13 1
14 12 1
12 14 1
14 7 1
7 14 1
14 13 1
14 3 1
3 13 1
13 16 1
16 12 1
12 15 1
15 12 1
12 16 1
16 13 1
12 11 1
11 8 1
8 20 1
20 12 1
22 13 1
22 21 1
21 22 1
18 13 1
13 7 1
12 23 1
23 11 1
19 16 1
15 24 1
24 16 1
15 16 1
15 17 1
17 18 1
8 25 1
25 11 1
7 10 1
3 26 1
27 26 1
27 3 1
3 27 1
27 12 1
17 3 1
3 28 1
28 3 1
3 29 1
29 3 1
3 30 1
30 7 1
12 31 1
7 31 1
12 3 1
19 17 1
