6 9 45
9 6 40
41 6 28
6 41 26
6 10 17
30 6 16
9 10 15
6 30 15
10 9 14
10 6 13
9 30 9
5 6 8
30 9 8
9 41 8
41 9 8
6 5 6
6 18 5
18 6 5
35 30 5
47 30 5
23 6 4
30 35 4
30 47 4
5 10 4
10 5 4
64 6 4
41 70 4
70 41 4
6 7 3
10 23 3
23 10 3
9 24 3
24 9 3
10 41 3
6 64 3
7 6 2
13 12 2
18 9 2
9 18 2
6 23 2
6 28 2
28 6 2
30 5 2
5 30 2
46 47 2
7 5 2
55 56 2
61 6 2
66 6 2
41 68 2
68 41 2
41 69 2
69 41 2
1 2 1
2 3 1
3 4 1
4 5 1
7 8 1
8 9 1
10 11 1
11 12 1
12 13 1
12 11 1
11 13 1
12 14 1
14 11 1
11 14 1
14 15 1
15 16 1
16 15 1
15 17 1
17 18 1
18 15 1
15 18 1
9 19 1
19 6 1
18 20 1
20 21 1
21 18 1
18 22 1
22 10 1
5 24 1
24 5 1
5 25 1
25 23 1
9 23 1
10 26 1
26 6 1
6 27 1
27 7 1
9 5 1
5 29 1
29 6 1
10 30 1
30 31 1
31 30 1
30 32 1
32 33 1
33 5 1
5 34 1
34 35 1
30 36 1
36 30 1
30 37 1
37 5 1
5 38 1
38 30 1
30 39 1
39 30 1
30 40 1
40 9 1
6 42 1
42 41 1
41 43 1
43 41 1
41 30 1
30 44 1
44 6 1
41 44 1
44 45 1
45 46 1
47 46 1
46 48 1
48 47 1
47 49 1
49 30 1
30 46 1
30 41 1
6 50 1
50 51 1
51 6 1
6 52 1
52 6 1
41 53 1
53 41 1
41 10 1
41 5 1
5 7 1
10 54 1
54 55 1
56 55 1
56 57 1
57 58 1
58 59 1
59 60 1
60 5 1
5 61 1
6 61 1
5 54 1
54 5 1
5 55 1
55 5 1
5 57 1
57 18 1
18 5 1
6 62 1
62 15 1
15 63 1
63 64 1
9 40 1
40 41 1
9 65 1
65 66 1
6 66 1
66 67 1
67 66 1
6 12 1
12 5 1
5 71 1
71 72 1
72 73 1
73 74 1
74 75 1
75 76 1
76 77 1
77 78 1
78 79 1
79 80 1
80 81 1
81 82 1
82 83 1
83 84 1
84 85 1
85 86 1
86 87 1
87 88 1
88 89 1
89 90 1
90 91 1
91 92 1
92 93 1
93 94 1
94 95 1
95 96 1
96 97 1
97 98 1
98 99 1
99 100 1
100 101 1
101 102 1
102 103 1
103 104 1
104 105 1
105 106 1
106 107 1
107 108 1
108 109 1
109 110 1
110 111 1
111 112 1
112 113 1
113 114 1
114 115 1
