5 6 61
6 5 60
6 2 54
2 6 52
5 2 50
2 8 50
2 5 47
15 2 40
8 2 40
2 15 39
11 2 38
2 11 33
2 3 32
3 2 31
37 2 21
2 37 20
8 5 17
5 15 16
15 5 14
8 6 14
5 8 13
2 4 12
6 8 11
8 27 11
4 5 10
8 11 10
4 2 10
5 4 9
5 11 9
27 8 9
11 8 8
8 15 8
11 5 7
2 17 7
11 6 6
6 11 6
8 7 5
17 2 5
7 8 4
15 11 4
15 8 4
22 5 4
5 22 4
25 8 4
8 4 4
34 3 4
11 15 3
17 8 3
11 30 3
4 8 3
6 3 3
3 34 3
3 5 2
5 17 2
17 11 2
8 17 2
3 8 2
8 25 2
11 29 2
29 11 2
30 11 2
31 11 2
32 5 2
34 11 2
1 2 1
3 4 1
4 6 1
6 4 1
4 7 1
8 9 1
9 8 1
8 10 1
10 11 1
11 12 1
12 13 1
13 2 1
2 14 1
14 8 1
7 2 1
2 16 1
16 2 1
17 18 1
18 19 1
19 17 1
17 5 1
11 20 1
20 2 1
11 21 1
21 2 1
4 22 1
22 6 1
5 23 1
23 2 1
11 24 1
24 8 1
15 6 1
15 25 1
7 25 1
6 26 1
26 8 1
27 6 1
6 28 1
28 5 1
5 28 1
28 6 1
30 31 1
11 31 1
15 17 1
15 32 1
32 17 1
17 32 1
5 32 1
32 2 1
2 32 1
27 33 1
33 8 1
6 34 1
4 34 1
34 4 1
4 11 1
11 4 1
4 35 1
35 5 1
3 6 1
17 34 1
11 34 1
8 3 1
3 11 1
11 3 1
2 34 1
34 5 1
6 36 1
36 5 1
5 37 1
37 38 1
38 37 1
