6 1 20
1 4 19
4 6 19
1 9 19
3 1 17
6 4 17
1 6 16
1 3 15
4 5 14
4 1 14
9 1 14
11 14 14
5 4 13
4 3 12
10 25 12
25 10 12
14 11 12
3 4 11
9 10 8
15 9 8
6 3 7
10 9 7
16 15 7
3 6 7
22 11 7
15 16 6
30 1 6
25 24 6
24 25 6
9 15 6
40 11 6
41 11 6
15 11 6
11 15 5
21 22 5
24 10 5
28 3 5
9 19 5
19 9 5
11 40 5
11 41 5
11 22 5
22 38 5
5 25 5
2 1 4
22 21 4
10 24 4
26 1 4
3 28 4
1 31 4
14 22 4
11 3 4
25 5 4
19 15 4
3 11 3
15 1 3
1 26 3
9 30 3
22 14 3
22 40 3
11 42 3
42 11 3
43 42 3
38 22 3
1 15 3
15 19 3
1 2 2
3 9 2
11 12 2
22 23 2
23 22 2
29 30 2
32 9 2
31 9 2
9 29 2
9 3 2
1 22 2
22 35 2
35 22 2
14 6 2
4 22 2
22 36 2
36 22 2
1 5 2
11 1 2
40 22 2
42 43 2
1 43 2
11 4 2
44 38 2
38 5 2
44 46 2
38 44 2
38 11 2
5 1 1
6 7 1
7 4 1
3 8 1
8 1 1
9 6 1
4 10 1
9 11 1
12 13 1
13 11 1
12 14 1
14 3 1
15 17 1
17 16 1
16 17 1
17 15 1
15 18 1
18 15 1
4 19 1
19 20 1
20 21 1
22 4 1
1 24 1
10 26 1
1 27 1
27 1 1
9 4 1
6 28 1
6 29 1
31 32 1
31 30 1
9 31 1
31 29 1
29 1 1
1 25 1
25 1 1
25 33 1
33 1 1
1 32 1
1 30 1
29 9 1
9 34 1
34 1 1
30 9 1
35 14 1
14 20 1
20 35 1
35 20 1
20 14 1
14 35 1
22 3 1
6 11 1
4 14 1
14 9 1
10 16 1
9 16 1
16 4 1
22 6 1
4 37 1
37 1 1
4 38 1
38 10 1
10 4 1
5 9 1
9 14 1
11 39 1
39 11 1
11 20 1
20 22 1
11 43 1
42 14 1
43 11 1
1 11 1
1 44 1
5 45 1
45 44 1
46 44 1
46 22 1
22 1 1
44 22 1
4 47 1
47 48 1
48 38 1
5 38 1
14 41 1
9 24 1
25 41 1
41 45 1
45 14 1
14 15 1
15 25 1
25 45 1
45 4 1
10 15 1
9 25 1
24 6 1
3 49 1
49 1 1
4 15 1
11 6 1
15 2 1
43 2 1
3 50 1
50 1 1
1 19 1
