1 13 67
13 1 63
33 1 29
1 33 27
1 11 21
11 1 18
12 1 18
1 12 16
1 16 14
1 35 13
35 1 13
16 1 12
50 1 11
1 50 9
35 36 8
1 28 7
28 1 7
36 35 7
36 13 6
35 38 6
1 36 5
13 36 5
36 1 5
38 35 5
38 1 5
51 1 5
11 12 4
1 38 4
1 44 4
44 1 4
1 51 4
11 13 3
18 11 3
12 11 3
1 24 3
24 1 3
37 12 3
12 37 3
13 35 3
35 34 3
13 12 2
1 15 2
15 1 2
16 17 2
13 11 2
11 18 2
16 13 2
1 22 2
1 25 2
25 1 2
34 13 2
13 34 2
34 36 2
46 11 2
49 50 2
11 50 2
1 2 1
2 1 1
1 3 1
3 4 1
4 5 1
5 6 1
6 7 1
7 1 1
1 8 1
8 1 1
1 9 1
9 10 1
10 1 1
1 10 1
10 11 1
12 14 1
14 1 1
17 16 1
17 1 1
13 18 1
18 13 1
1 18 1
13 19 1
19 1 1
11 20 1
20 16 1
16 21 1
21 16 1
22 1 1
22 23 1
23 1 1
1 26 1
26 1 1
11 27 1
27 1 1
28 13 1
13 28 1
13 29 1
29 30 1
30 31 1
31 1 1
1 32 1
32 30 1
30 33 1
33 29 1
29 34 1
34 32 1
32 1 1
1 29 1
29 1 1
36 37 1
37 34 1
34 35 1
34 39 1
39 11 1
12 35 1
36 40 1
40 41 1
41 11 1
11 38 1
38 11 1
13 42 1
42 43 1
43 12 1
1 41 1
41 1 1
11 45 1
45 46 1
11 46 1
11 47 1
47 11 1
11 48 1
48 33 1
1 49 1
1 52 1
52 49 1
50 51 1
1 53 1
53 1 1
33 41 1
41 33 1
50 33 1
1 54 1
54 33 1
33 50 1
