2 13 67
13 2 63
33 2 29
2 33 27
2 11 21
11 2 18
12 2 18
2 12 16
2 16 14
2 35 13
35 2 13
16 2 12
50 2 11
2 50 9
35 36 8
2 28 7
28 2 7
36 35 7
36 13 6
35 38 6
2 36 5
13 36 5
36 2 5
38 35 5
38 2 5
51 2 5
11 12 4
2 38 4
2 44 4
44 2 4
2 51 4
11 13 3
18 11 3
12 11 3
2 24 3
24 2 3
37 12 3
12 37 3
13 35 3
35 34 3
13 12 2
2 15 2
15 2 2
16 17 2
13 11 2
11 18 2
16 13 2
2 22 2
2 25 2
25 2 2
34 13 2
13 34 2
34 36 2
46 11 2
49 50 2
11 50 2
1 2 1
2 3 1
3 4 1
4 5 1
5 6 1
6 7 1
7 2 1
2 8 1
8 2 1
2 9 1
9 10 1
10 2 1
2 10 1
10 11 1
12 14 1
14 2 1
17 16 1
17 2 1
13 18 1
18 13 1
2 18 1
13 19 1
19 2 1
11 20 1
20 16 1
16 21 1
21 16 1
22 2 1
22 23 1
23 2 1
2 26 1
26 2 1
11 27 1
27 2 1
28 13 1
13 28 1
13 29 1
29 30 1
30 31 1
31 2 1
2 32 1
32 30 1
30 33 1
33 29 1
29 34 1
34 32 1
32 2 1
2 29 1
29 2 1
36 37 1
37 34 1
34 35 1
34 39 1
39 11 1
12 35 1
36 40 1
40 41 1
41 11 1
11 38 1
38 11 1
13 42 1
42 43 1
43 12 1
2 41 1
41 2 1
11 45 1
45 46 1
11 46 1
11 47 1
47 11 1
11 48 1
48 33 1
2 49 1
2 52 1
52 49 1
50 51 1
2 53 1
53 2 1
33 41 1
41 33 1
50 33 1
2 54 1
54 33 1
33 50 1
