7 28 67
28 7 66
7 76 21
76 7 18
9 7 17
7 9 17
76 28 10
69 7 9
28 76 9
7 69 7
7 10 6
10 7 5
7 55 5
27 7 4
28 11 4
28 49 4
55 57 4
57 7 4
11 7 3
49 28 3
7 50 3
54 7 3
7 57 3
57 55 3
11 28 3
6 7 2
18 19 2
19 18 2
29 9 2
7 30 2
41 12 2
48 7 2
28 10 2
50 7 2
52 51 2
27 9 2
7 54 2
60 9 2
48 28 2
10 66 2
66 7 2
9 27 2
28 69 2
7 11 2
77 7 2
1 2 1
2 3 1
3 4 1
4 3 1
3 5 1
5 6 1
7 8 1
8 9 1
10 9 1
9 11 1
11 12 1
12 11 1
9 12 1
12 13 1
13 12 1
12 9 1
7 14 1
14 9 1
9 15 1
15 16 1
16 17 1
17 18 1
19 7 1
7 19 1
18 14 1
14 7 1
9 20 1
20 21 1
21 22 1
22 6 1
9 23 1
23 24 1
24 9 1
9 6 1
6 25 1
25 6 1
6 26 1
26 27 1
7 29 1
30 31 1
31 9 1
9 32 1
32 33 1
33 30 1
30 7 1
7 34 1
34 7 1
7 35 1
35 36 1
36 37 1
37 9 1
7 38 1
38 39 1
39 40 1
40 41 1
12 28 1
28 12 1
12 42 1
42 43 1
43 28 1
11 41 1
12 39 1
39 44 1
44 7 1
28 45 1
45 46 1
46 47 1
47 48 1
7 43 1
43 7 1
10 28 1
49 7 1
50 51 1
51 7 1
50 52 1
51 52 1
51 50 1
7 12 1
12 7 1
7 27 1
9 39 1
39 28 1
30 53 1
53 29 1
9 29 1
29 54 1
55 56 1
56 7 1
55 7 1
57 58 1
58 57 1
57 28 1
28 57 1
57 59 1
59 57 1
55 60 1
9 8 1
8 61 1
61 48 1
28 62 1
62 63 1
63 9 1
9 64 1
64 9 1
28 65 1
65 48 1
48 10 1
55 28 1
7 48 1
48 60 1
27 10 1
10 48 1
28 67 1
67 27 1
27 28 1
28 27 1
28 68 1
68 10 1
10 69 1
69 28 1
69 70 1
70 69 1
69 27 1
7 71 1
71 69 1
7 72 1
72 73 1
73 48 1
48 74 1
74 48 1
7 75 1
75 28 1
76 27 1
76 77 1
9 77 1
9 76 1
76 78 1
78 76 1
7 79 1
79 80 1
80 28 1
76 79 1
79 60 1
60 7 1
7 32 1
32 81 1
81 82 1
82 83 1
83 81 1
81 84 1
84 85 1
85 84 1
84 86 1
86 48 1
