2 20 47
20 2 44
2 17 31
17 2 31
20 22 31
22 20 27
2 4 22
4 2 21
27 20 19
20 27 19
12 2 14
2 12 13
22 2 11
2 22 10
2 8 9
8 26 8
8 2 7
8 12 7
26 8 7
12 8 6
2 3 5
2 10 5
20 17 5
1 2 4
3 2 4
10 2 4
18 12 4
17 10 4
20 1 3
27 2 3
2 27 3
2 5 2
5 2 2
6 2 2
8 20 2
17 20 2
17 24 2
24 17 2
8 28 2
17 29 2
29 17 2
10 17 2
27 17 2
12 20 2
5 8 2
3 1 1
4 6 1
2 7 1
7 8 1
8 7 1
7 9 1
9 2 1
2 11 1
11 12 1
12 1 1
1 8 1
12 6 1
10 13 1
13 14 1
14 9 1
9 15 1
15 2 1
8 16 1
16 8 1
17 8 1
8 17 1
17 12 1
12 18 1
17 19 1
19 2 1
20 21 1
21 20 1
22 23 1
23 20 1
1 20 1
22 18 1
20 10 1
10 25 1
25 20 1
22 8 1
26 27 1
28 8 1
28 17 1
10 20 1
10 27 1
17 18 1
2 18 1
12 5 1
8 5 1
17 22 1
