10 2 44
2 10 43
2 6 36
6 2 34
2 21 23
21 2 22
27 2 14
2 27 12
2 8 11
2 5 9
5 2 9
8 2 9
51 2 8
2 51 8
2 14 6
14 2 6
15 2 6
17 2 6
2 17 6
2 23 6
23 2 6
46 2 6
7 2 5
2 15 5
2 41 5
41 2 5
2 46 5
5 7 4
2 19 4
19 2 4
2 22 4
2 30 4
21 44 4
44 21 4
2 7 3
2 11 3
22 2 3
17 28 3
30 2 3
5 6 2
10 11 2
11 2 2
2 20 2
20 2 2
11 10 2
6 5 2
10 5 2
28 17 2
30 27 2
2 37 2
37 38 2
38 37 2
37 2 2
21 10 2
41 42 2
2 48 2
48 2 2
2 49 2
10 55 2
55 10 2
6 56 2
56 2 2
2 57 2
57 2 2
1 2 1
2 3 1
3 2 1
2 4 1
4 5 1
6 7 1
7 5 1
8 9 1
9 10 1
11 12 1
12 13 1
13 2 1
2 16 1
16 2 1
6 17 1
2 18 1
18 2 1
2 9 1
9 6 1
23 6 1
6 23 1
7 10 1
5 10 1
11 5 1
5 24 1
24 6 1
2 25 1
25 2 1
2 26 1
26 27 1
28 29 1
29 2 1
27 30 1
27 31 1
31 27 1
2 32 1
32 2 1
21 33 1
33 34 1
34 2 1
2 35 1
35 36 1
36 2 1
2 38 1
38 2 1
8 39 1
39 2 1
6 11 1
2 40 1
40 2 1
42 41 1
42 2 1
2 42 1
42 21 1
21 41 1
2 43 1
43 21 1
21 15 1
2 45 1
45 46 1
2 47 1
47 2 1
49 2 1
49 50 1
50 51 1
10 21 1
10 52 1
52 53 1
53 2 1
2 54 1
54 2 1
51 10 1
55 2 1
2 55 1
10 6 1
22 5 1
7 21 1
