4 10 14
10 4 13
7 13 11
3 4 9
4 3 9
13 10 8
4 11 8
13 7 8
7 14 8
10 13 7
15 14 7
15 4 7
4 15 7
4 7 7
7 4 7
14 7 7
14 15 6
11 12 5
13 12 5
11 4 5
6 8 4
8 4 4
12 8 4
12 13 4
8 13 4
14 11 4
4 8 4
8 7 4
7 16 4
11 7 4
8 11 4
13 11 4
7 6 3
8 6 3
10 6 3
8 12 3
12 4 3
6 10 3
13 9 3
13 8 3
11 13 3
13 14 3
14 4 3
16 7 3
10 7 3
7 10 3
7 8 3
11 8 3
7 12 3
12 10 3
11 14 3
17 7 3
10 8 3
6 4 2
6 7 2
4 9 2
9 4 2
6 11 2
10 11 2
9 13 2
14 12 2
4 14 2
4 13 2
13 4 2
10 14 2
12 6 2
12 7 2
10 12 2
12 11 2
14 13 2
11 15 2
17 4 2
4 17 2
17 13 2
13 17 2
14 17 2
8 10 2
1 2 1
2 3 1
3 5 1
5 3 1
3 6 1
4 6 1
8 9 1
9 11 1
11 9 1
9 10 1
9 14 1
12 14 1
14 8 1
16 9 1
9 16 1
16 15 1
11 6 1
11 10 1
6 12 1
15 11 1
11 17 1
7 17 1
17 10 1
10 17 1
17 15 1
14 6 1
6 14 1
15 13 1
7 11 1
15 7 1
