15 24 22
24 15 22
13 15 17
15 13 16
22 13 14
13 22 12
13 12 11
12 13 10
25 29 8
29 33 8
33 29 8
11 25 7
29 25 7
12 15 4
25 14 4
25 11 4
18 15 3
13 21 3
15 12 3
22 39 3
39 22 3
13 9 3
12 11 2
11 13 2
13 20 2
20 13 2
21 13 2
14 15 2
14 11 2
14 25 2
24 13 2
12 24 2
16 11 2
29 24 2
8 13 2
13 8 2
9 13 2
1 2 1
2 3 1
3 4 1
4 5 1
5 6 1
6 7 1
7 8 1
8 9 1
9 8 1
8 10 1
10 11 1
11 12 1
13 14 1
14 13 1
15 16 1
16 15 1
15 17 1
17 18 1
15 19 1
19 18 1
15 18 1
21 3 1
3 21 1
22 12 1
15 23 1
23 15 1
15 25 1
15 14 1
15 22 1
13 26 1
26 22 1
15 3 1
3 13 1
24 14 1
11 14 1
11 15 1
24 27 1
27 13 1
13 24 1
15 11 1
11 16 1
25 16 1
25 28 1
28 11 1
24 30 1
30 24 1
24 12 1
13 31 1
31 22 1
13 32 1
32 22 1
22 29 1
21 34 1
34 12 1
12 35 1
35 8 1
8 36 1
36 12 1
13 37 1
37 12 1
12 38 1
38 13 1
13 40 1
40 13 1
13 41 1
41 13 1
12 28 1
28 42 1
42 14 1
14 43 1
43 25 1
14 12 1
