26 40 43
40 26 42
2 3 33
3 2 31
26 31 26
31 26 23
4 5 13
24 26 12
26 24 11
5 4 10
3 6 10
6 3 9
3 4 8
18 21 8
29 26 8
21 18 7
25 24 7
24 25 7
26 29 7
4 3 6
25 26 6
5 2 5
2 5 5
5 3 5
12 13 5
15 3 5
26 25 5
26 43 5
3 7 4
13 12 4
3 15 4
20 21 4
21 20 4
18 24 4
43 26 4
3 5 3
2 4 3
7 3 3
22 18 3
24 18 3
18 25 3
24 21 3
21 24 3
25 18 3
31 24 3
24 31 3
4 2 2
10 11 2
11 10 2
18 22 2
28 26 2
33 26 2
1 2 1
5 6 1
6 2 1
7 2 1
3 8 1
8 9 1
9 10 1
10 12 1
13 14 1
14 13 1
13 7 1
7 15 1
15 16 1
16 17 1
17 18 1
18 15 1
15 19 1
19 3 1
3 19 1
19 15 1
3 16 1
16 15 1
15 20 1
20 18 1
21 22 1
18 23 1
23 18 1
21 25 1
26 18 1
18 26 1
26 21 1
21 26 1
25 21 1
25 4 1
4 25 1
26 27 1
27 28 1
26 28 1
28 30 1
30 28 1
28 29 1
26 30 1
30 29 1
29 28 1
31 29 1
31 32 1
32 26 1
31 33 1
26 33 1
33 34 1
34 33 1
26 35 1
35 26 1
26 36 1
36 37 1
37 36 1
36 26 1
26 5 1
5 38 1
38 26 1
31 39 1
39 26 1
40 4 1
4 40 1
40 41 1
41 40 1
26 34 1
34 40 1
40 25 1
29 31 1
31 5 1
5 26 1
26 42 1
42 26 1
40 31 1
43 40 1
40 44 1
44 40 1
40 45 1
45 3 1
6 46 1
46 47 1
47 4 1
4 48 1
48 3 1
