5 3 87
3 5 81
14 15 58
15 14 56
3 26 45
26 3 44
3 34 30
34 3 29
3 15 20
15 3 19
14 3 15
3 14 14
15 5 14
26 14 14
5 14 13
14 5 13
14 26 12
3 32 10
5 15 9
29 3 9
5 26 8
32 3 8
3 29 8
26 5 7
11 26 7
15 26 7
26 15 7
29 5 7
11 15 6
26 11 6
5 29 6
3 4 5
3 11 5
38 39 5
4 3 4
15 11 4
39 38 4
11 3 3
11 14 3
3 37 3
37 3 3
7 3 2
5 11 2
3 30 2
14 11 2
4 5 2
15 36 2
36 14 2
34 26 2
26 34 2
40 4 2
41 42 2
42 43 2
21 42 2
1 2 1
2 3 1
5 6 1
6 7 1
3 8 1
8 3 1
3 7 1
3 9 1
9 3 1
3 10 1
10 3 1
3 12 1
12 3 1
3 13 1
13 5 1
14 16 1
16 15 1
11 5 1
15 17 1
17 18 1
18 19 1
19 20 1
20 18 1
18 21 1
21 18 1
18 22 1
22 15 1
14 23 1
23 3 1
3 23 1
23 11 1
15 24 1
24 14 1
5 25 1
25 5 1
26 27 1
27 26 1
26 28 1
28 29 1
30 3 1
30 31 1
31 3 1
32 33 1
33 4 1
34 35 1
35 3 1
3 35 1
35 34 1
36 15 1
14 36 1
26 29 1
29 26 1
32 15 1
34 29 1
3 38 1
39 40 1
4 41 1
42 21 1
21 40 1
4 42 1
42 41 1
43 4 1
4 21 1
43 40 1
40 21 1
