14 6 39
6 14 37
12 14 22
14 12 22
10 18 21
16 13 19
13 16 18
18 10 15
6 8 13
8 6 13
18 12 11
16 14 11
13 14 11
14 16 11
8 16 9
12 18 9
14 13 9
6 26 8
26 6 8
6 12 7
31 20 7
20 31 7
5 8 6
19 6 6
6 19 6
16 8 6
13 12 5
12 6 5
19 20 5
20 19 5
23 6 5
6 5 4
8 5 4
6 10 4
16 12 4
12 16 4
12 23 4
6 23 4
17 8 4
12 10 4
16 10 4
5 6 3
10 6 3
12 13 3
17 5 3
24 6 3
14 23 3
23 12 3
18 14 3
14 10 3
5 17 3
10 14 3
18 13 3
6 16 2
12 17 2
5 18 2
18 8 2
12 24 2
6 24 2
24 12 2
13 8 2
8 19 2
10 12 2
6 13 2
13 6 2
12 25 2
25 6 2
26 14 2
18 5 2
19 13 2
8 17 2
13 18 2
23 32 2
32 14 2
14 32 2
35 12 2
14 35 2
35 18 2
18 16 2
1 2 1
2 3 1
3 4 1
4 5 1
5 7 1
7 6 1
8 9 1
9 6 1
6 11 1
11 6 1
8 10 1
6 15 1
15 14 1
8 14 1
14 19 1
14 21 1
21 22 1
22 14 1
14 20 1
19 5 1
8 18 1
19 24 1
24 18 1
18 24 1
19 18 1
18 6 1
16 5 1
5 24 1
24 14 1
12 26 1
14 26 1
6 25 1
25 12 1
5 19 1
19 27 1
27 17 1
17 19 1
20 12 1
23 28 1
28 12 1
12 29 1
29 14 1
13 19 1
8 13 1
13 10 1
10 16 1
16 24 1
24 8 1
16 27 1
27 14 1
14 17 1
19 16 1
14 18 1
6 30 1
30 6 1
6 31 1
31 5 1
17 13 1
14 8 1
10 13 1
23 14 1
32 23 1
32 16 1
16 33 1
33 6 1
6 34 1
34 19 1
16 18 1
12 35 1
35 16 1
18 36 1
36 12 1
12 36 1
36 35 1
16 36 1
36 13 1
10 35 1
