13 4 28
4 13 27
10 11 15
11 10 13
4 9 11
3 4 10
9 4 10
2 3 9
3 7 9
4 3 9
3 2 8
7 4 8
14 4 8
4 14 8
4 17 8
4 5 7
4 7 7
7 3 7
17 4 7
5 7 6
7 5 6
11 15 6
3 17 6
17 3 6
5 4 6
4 10 5
14 3 5
15 11 5
10 4 4
17 7 4
3 14 4
7 2 3
16 13 3
4 2 3
7 17 3
2 4 3
8 4 2
13 16 2
1 2 1
5 6 1
6 7 1
7 8 1
2 10 1
10 5 1
5 3 1
4 12 1
12 13 1
13 14 1
3 11 1
15 14 1
14 13 1
4 16 1
11 4 1
2 17 1
17 11 1
11 18 1
18 10 1
11 19 1
19 10 1
10 3 1
2 7 1
3 13 1
13 20 1
20 4 1
13 3 1
14 7 1
7 14 1
14 2 1
2 14 1
3 21 1
21 3 1
4 22 1
22 4 1
9 8 1
4 8 1
