18 19 12
13 32 12
13 10 11
10 12 11
32 13 11
8 10 10
10 13 9
12 10 9
19 18 9
10 8 9
10 20 8
20 26 8
9 8 7
19 17 7
20 10 7
26 20 7
35 20 7
20 35 6
8 9 5
12 13 5
13 11 5
17 19 5
20 8 5
11 13 4
8 28 4
17 15 4
20 33 4
33 20 4
11 12 3
14 15 3
20 13 3
17 18 3
8 20 3
15 17 3
10 11 2
13 14 2
14 10 2
10 14 2
13 17 2
15 14 2
14 13 2
8 13 2
13 20 2
20 25 2
25 20 2
10 9 2
28 8 2
28 9 2
18 13 2
13 18 2
29 26 2
9 34 2
34 9 2
1 2 1
2 3 1
3 4 1
4 2 1
2 5 1
5 6 1
6 2 1
2 7 1
7 8 1
15 16 1
16 17 1
17 12 1
12 18 1
17 20 1
13 21 1
21 12 1
13 12 1
17 13 1
17 10 1
12 8 1
9 11 1
11 22 1
22 18 1
18 23 1
23 19 1
19 15 1
14 18 1
18 14 1
13 15 1
15 24 1
24 14 1
14 20 1
13 8 1
20 14 1
15 20 1
26 10 1
10 22 1
22 27 1
27 13 1
9 17 1
18 10 1
8 29 1
29 20 1
26 29 1
26 30 1
30 20 1
20 29 1
20 17 1
15 31 1
31 11 1
12 11 1
14 11 1
11 14 1
14 9 1
9 10 1
10 15 1
15 9 1
8 14 1
9 13 1
32 18 1
18 17 1
19 10 1
11 10 1
11 8 1
8 35 1
