12 13 24
13 12 24
32 12 24
12 32 24
19 24 17
24 19 15
6 3 12
27 28 12
28 27 12
13 28 10
19 12 9
3 6 8
28 13 8
12 10 8
12 19 8
10 12 7
12 51 4
28 10 4
12 28 4
10 28 4
13 15 3
15 13 3
12 16 3
16 12 3
12 17 3
17 12 3
19 25 3
25 19 3
29 28 3
27 29 3
29 13 3
29 37 3
13 10 3
12 24 3
49 27 3
51 12 3
10 13 3
28 12 3
28 58 3
3 7 2
7 6 2
3 10 2
10 3 2
14 12 2
28 29 2
13 29 2
27 13 2
15 32 2
33 12 2
12 36 2
24 36 2
36 24 2
37 27 2
37 39 2
39 37 2
37 29 2
37 10 2
10 19 2
24 41 2
41 19 2
27 39 2
17 10 2
49 12 2
58 31 2
58 27 2
27 10 2
12 11 2
50 19 2
27 49 2
39 27 2
1 2 1
2 3 1
3 4 1
4 5 1
5 6 1
3 8 1
8 3 1
3 9 1
9 6 1
3 11 1
11 3 1
3 12 1
13 14 1
12 18 1
18 19 1
19 20 1
20 21 1
21 22 1
22 23 1
23 24 1
24 25 1
25 24 1
24 26 1
26 19 1
24 27 1
29 27 1
28 30 1
30 27 1
29 31 1
31 28 1
28 15 1
12 33 1
32 15 1
12 34 1
34 12 1
10 35 1
35 12 1
36 19 1
19 37 1
27 37 1
27 38 1
38 37 1
39 29 1
13 39 1
37 28 1
13 37 1
10 37 1
37 40 1
40 30 1
30 29 1
19 41 1
41 42 1
42 41 1
41 24 1
19 43 1
43 44 1
44 12 1
12 45 1
45 13 1
10 46 1
46 12 1
24 47 1
47 19 1
24 48 1
48 49 1
39 13 1
28 39 1
39 12 1
12 50 1
50 12 1
51 52 1
52 53 1
53 17 1
17 54 1
54 17 1
10 17 1
10 55 1
55 10 1
10 56 1
56 28 1
28 57 1
57 28 1
28 14 1
14 28 1
13 49 1
12 49 1
31 58 1
27 58 1
31 59 1
59 58 1
58 12 1
12 60 1
60 12 1
12 61 1
61 19 1
36 12 1
24 12 1
19 62 1
62 27 1
11 10 1
13 27 1
27 12 1
32 13 1
12 14 1
12 15 1
13 32 1
32 63 1
63 50 1
19 51 1
51 19 1
19 64 1
64 16 1
16 65 1
65 10 1
10 27 1
10 31 1
31 39 1
27 66 1
66 27 1
10 67 1
67 12 1
28 68 1
68 28 1
28 69 1
69 49 1
49 10 1
58 32 1
12 70 1
70 71 1
71 70 1
70 10 1
10 72 1
72 73 1
73 12 1
32 33 1
12 57 1
57 72 1
72 12 1
12 74 1
74 12 1
12 75 1
75 12 1
19 76 1
76 19 1
19 50 1
19 77 1
77 70 1
70 78 1
78 12 1
11 13 1
12 79 1
79 13 1
