8 35 39
35 8 38
15 18 23
28 29 19
29 28 17
20 22 16
36 37 16
31 36 16
36 78 16
18 15 15
22 20 15
36 31 14
10 47 14
37 36 13
47 10 13
51 50 13
78 36 13
1 2 11
2 6 11
6 2 11
8 31 10
24 36 10
38 24 10
2 1 9
14 15 9
31 8 9
36 24 9
15 14 8
50 51 8
15 55 8
55 15 8
15 31 8
24 38 7
29 41 7
46 10 7
50 22 7
31 15 7
41 29 6
2 37 6
37 2 6
10 46 6
24 76 6
8 48 5
48 8 5
22 51 5
22 50 5
66 74 5
74 66 5
76 24 5
20 92 5
92 20 5
102 104 5
104 102 5
8 110 5
10 11 4
2 24 4
31 33 4
33 31 4
10 37 4
2 36 4
2 77 4
77 2 4
20 87 4
18 98 4
102 10 4
110 8 4
6 1 3
8 9 3
20 21 3
21 20 3
24 2 3
9 8 3
29 56 3
29 57 3
37 10 3
66 31 3
31 66 3
31 70 3
70 31 3
20 85 3
85 20 3
87 20 3
98 18 3
22 115 3
11 10 2
12 10 2
24 26 2
15 8 2
31 32 2
32 31 2
31 10 2
36 9 2
9 15 2
10 8 2
9 36 2
51 22 2
15 53 2
53 15 2
56 29 2
57 29 2
9 29 2
55 18 2
18 55 2
9 31 2
36 2 2
67 31 2
31 67 2
71 29 2
31 38 2
20 86 2
87 88 2
88 87 2
89 29 2
29 94 2
94 29 2
15 96 2
96 15 2
15 97 2
97 15 2
15 37 2
37 15 2
99 15 2
10 102 2
10 104 2
111 112 2
112 111 2
8 114 2
35 107 2
107 35 2
115 22 2
22 116 2
116 22 2
2 3 1
3 4 1
4 5 1
5 6 1
1 7 1
7 8 1
9 10 1
11 12 1
11 13 1
13 10 1
10 12 1
10 14 1
14 16 1
16 15 1
15 17 1
17 15 1
18 19 1
19 14 1
15 20 1
20 2 1
2 20 1
22 9 1
9 20 1
20 23 1
23 24 1
24 25 1
25 2 1
26 2 1
26 27 1
27 28 1
28 30 1
30 28 1
28 15 1
10 34 1
34 8 1
8 20 1
22 36 1
9 24 1
24 39 1
39 29 1
29 40 1
40 29 1
41 15 1
18 9 1
18 42 1
42 15 1
15 2 1
37 43 1
43 44 1
44 37 1
37 45 1
45 36 1
36 46 1
35 48 1
48 49 1
49 8 1
35 25 1
25 8 1
8 15 1
35 31 1
31 9 1
36 38 1
24 8 1
8 50 1
50 10 1
10 22 1
22 15 1
15 25 1
25 5 1
5 15 1
15 52 1
52 15 1
53 54 1
54 15 1
15 9 1
15 28 1
56 9 1
57 58 1
58 53 1
53 59 1
59 60 1
60 53 1
15 22 1
20 61 1
61 55 1
55 61 1
61 15 1
15 62 1
62 55 1
55 63 1
63 15 1
31 64 1
64 31 1
31 47 1
36 15 1
15 10 1
47 65 1
65 10 1
47 2 1
2 31 1
31 2 1
2 66 1
66 67 1
31 68 1
68 31 1
33 13 1
13 33 1
33 69 1
69 31 1
31 29 1
29 71 1
29 10 1
47 9 1
37 72 1
72 2 1
37 22 1
50 73 1
73 24 1
24 31 1
24 66 1
66 42 1
42 31 1
24 35 1
8 75 1
75 22 1
20 36 1
37 24 1
78 79 1
79 36 1
78 80 1
80 36 1
78 9 1
31 78 1
78 81 1
81 51 1
50 82 1
82 22 1
50 83 1
83 6 1
6 84 1
84 2 1
2 35 1
35 45 1
45 20 1
86 20 1
86 12 1
12 20 1
87 44 1
44 88 1
20 88 1
88 31 1
10 89 1
29 89 1
29 22 1
50 90 1
90 50 1
22 91 1
91 20 1
88 20 1
92 88 1
88 92 1
20 10 1
10 24 1
76 25 1
25 24 1
2 10 1
10 93 1
93 8 1
8 94 1
94 28 1
29 9 1
28 71 1
29 18 1
31 95 1
95 15 1
18 99 1
15 99 1
98 15 1
18 100 1
100 31 1
18 101 1
101 15 1
18 51 1
51 18 1
18 10 1
10 103 1
103 102 1
104 31 1
15 33 1
33 105 1
105 15 1
31 18 1
18 31 1
31 104 1
104 106 1
106 31 1
67 107 1
107 15 1
15 102 1
102 108 1
108 102 1
102 109 1
109 10 1
47 102 1
104 47 1
47 25 1
25 102 1
102 47 1
35 110 1
110 35 1
110 9 1
8 33 1
36 35 1
8 24 1
24 6 1
1 6 1
2 51 1
50 28 1
29 111 1
111 113 1
113 8 1
114 8 1
114 35 1
35 13 1
13 50 1
22 10 1
10 1 1
1 25 1
25 10 1
10 2 1
2 47 1
10 20 1
115 20 1
20 15 1
