2 4 18
4 2 18
5 6 18
6 5 16
16 2 11
2 16 10
6 35 10
2 6 9
25 6 9
37 6 9
6 25 8
2 34 8
34 2 8
35 6 8
6 2 7
6 37 7
6 26 5
32 6 5
40 2 5
9 2 4
6 24 4
24 6 4
26 6 4
26 25 4
25 26 4
2 28 4
6 32 4
2 40 4
37 35 4
35 37 4
6 9 3
2 9 3
12 6 3
6 13 3
13 6 3
6 12 3
28 2 3
2 5 2
9 6 2
14 6 2
2 18 2
18 2 2
33 2 2
6 36 2
6 40 2
1 2 1
2 3 1
3 2 1
4 5 1
6 7 1
7 2 1
5 2 1
4 8 1
8 6 1
2 10 1
10 11 1
11 2 1
2 12 1
6 14 1
12 15 1
15 14 1
2 17 1
17 2 1
2 19 1
19 20 1
20 19 1
19 21 1
21 22 1
22 6 1
6 23 1
23 6 1
24 23 1
23 24 1
6 16 1
2 25 1
26 27 1
27 2 1
28 6 1
6 29 1
29 6 1
6 30 1
30 29 1
29 2 1
2 31 1
31 2 1
2 13 1
13 15 1
15 32 1
32 2 1
2 33 1
2 32 1
36 32 1
32 37 1
6 38 1
38 6 1
6 33 1
2 39 1
39 4 1
40 41 1
41 2 1
36 37 1
35 42 1
42 4 1
35 40 1
40 6 1
