7 4 54
4 7 51
4 9 49
9 4 42
4 15 32
15 4 32
4 8 21
8 4 21
3 4 17
4 3 14
9 15 13
4 29 13
5 4 12
15 9 12
4 5 10
9 7 10
29 4 10
7 9 9
4 6 8
7 8 8
14 4 8
16 4 8
4 14 8
4 11 8
6 4 7
8 7 7
11 4 6
5 3 5
4 16 5
3 5 4
11 3 4
9 5 4
3 11 3
5 11 3
3 6 3
13 14 3
9 17 3
14 13 3
17 9 3
8 9 3
15 7 3
4 17 3
35 4 3
41 4 3
6 5 2
6 3 2
9 13 2
17 16 2
4 20 2
13 7 2
14 15 2
7 14 2
14 9 2
9 14 2
28 4 2
29 15 2
29 9 2
9 8 2
7 35 2
4 35 2
4 37 2
37 4 2
4 38 2
27 41 2
1 2 1
2 3 1
7 10 1
10 4 1
11 6 1
11 12 1
12 4 1
4 13 1
13 9 1
15 16 1
4 18 1
18 19 1
19 3 1
20 21 1
21 4 1
4 21 1
21 22 1
22 14 1
7 13 1
14 17 1
17 4 1
7 15 1
13 23 1
23 13 1
14 7 1
15 14 1
14 24 1
24 15 1
15 25 1
25 14 1
13 4 1
4 26 1
26 4 1
5 9 1
4 27 1
27 4 1
4 28 1
20 4 1
15 29 1
4 30 1
30 4 1
9 29 1
29 31 1
31 4 1
9 32 1
32 7 1
17 15 1
15 33 1
33 7 1
11 16 1
6 28 1
11 5 1
5 7 1
4 34 1
34 4 1
35 7 1
4 36 1
36 7 1
38 39 1
39 40 1
40 27 1
4 41 1
4 42 1
42 27 1
27 43 1
43 27 1
38 15 1
15 44 1
44 15 1
15 45 1
45 46 1
46 17 1
17 45 1
45 4 1
9 47 1
47 4 1
16 5 1
5 16 1
16 48 1
48 4 1
9 3 1
3 7 1
7 5 1
4 49 1
49 50 1
50 51 1
51 38 1
38 6 1
6 9 1
9 52 1
52 4 1
7 52 1
52 14 1
