8 17 29
17 9 27
17 8 26
9 17 25
9 8 18
8 9 16
21 11 9
11 21 8
20 32 7
10 25 6
25 10 6
28 8 6
32 20 6
11 12 5
17 23 5
8 28 5
2 3 4
9 10 4
12 11 4
23 17 4
10 9 3
19 20 3
20 19 3
38 17 3
3 2 2
7 8 2
11 17 2
23 8 2
24 10 2
17 20 2
32 9 2
9 38 2
1 2 1
3 4 1
4 2 1
3 5 1
5 6 1
6 7 1
8 7 1
10 11 1
12 13 1
13 11 1
11 13 1
13 14 1
14 15 1
15 16 1
16 15 1
15 12 1
12 9 1
17 18 1
18 8 1
8 19 1
19 9 1
8 21 1
9 11 1
11 8 1
8 22 1
22 17 1
8 23 1
23 11 1
11 24 1
10 24 1
10 26 1
26 10 1
10 21 1
21 8 1
9 23 1
23 27 1
27 28 1
8 29 1
29 11 1
21 30 1
30 23 1
8 31 1
31 32 1
32 17 1
17 33 1
33 8 1
8 34 1
34 9 1
9 35 1
35 8 1
17 36 1
36 9 1
20 37 1
37 32 1
17 38 1
9 39 1
39 9 1
17 21 1
