11 21 9
9 11 7
21 22 7
21 11 7
9 10 6
11 9 6
22 21 6
16 25 6
10 11 5
9 15 5
10 9 5
22 11 5
4 5 4
11 13 4
13 14 4
15 9 4
25 16 4
11 22 4
28 9 4
13 11 3
14 12 3
12 13 3
20 12 3
11 16 3
22 9 3
9 22 3
9 28 3
5 4 2
11 12 2
12 9 2
10 16 2
9 16 2
16 9 2
12 20 2
11 10 2
27 28 2
22 25 2
22 29 2
29 22 2
1 2 1
2 3 1
3 4 1
5 6 1
6 4 1
5 7 1
7 8 1
8 9 1
12 11 1
14 9 1
9 12 1
15 13 1
13 10 1
16 10 1
9 17 1
17 18 1
18 19 1
19 11 1
11 20 1
12 21 1
21 20 1
20 23 1
23 24 1
24 11 1
25 10 1
16 11 1
22 10 1
10 22 1
11 26 1
26 9 1
9 27 1
28 27 1
25 21 1
21 17 1
17 10 1
21 28 1
28 11 1
25 22 1
11 30 1
30 31 1
31 22 1
16 32 1
32 11 1
