10 7 28
7 10 27
7 8 25
8 7 23
12 13 10
13 12 9
7 11 5
11 7 5
9 23 5
2 3 4
9 10 4
10 11 4
11 10 4
26 10 4
39 10 4
10 39 4
11 9 3
17 7 3
10 26 3
11 31 3
31 11 3
3 2 2
10 9 2
9 11 2
7 17 2
23 24 2
24 9 2
23 25 2
25 9 2
38 7 2
1 2 1
3 4 1
4 2 1
3 5 1
5 6 1
6 7 1
7 9 1
10 12 1
13 14 1
14 7 1
7 15 1
15 7 1
7 16 1
16 7 1
10 8 1
8 10 1
7 18 1
18 13 1
13 7 1
8 17 1
7 19 1
19 20 1
20 7 1
7 21 1
21 22 1
22 7 1
24 25 1
23 9 1
25 24 1
7 26 1
8 16 1
16 27 1
27 13 1
13 28 1
28 29 1
29 7 1
7 29 1
29 30 1
30 29 1
29 17 1
17 8 1
8 11 1
7 32 1
32 33 1
33 34 1
34 32 1
32 34 1
34 35 1
35 32 1
32 36 1
36 7 1
10 20 1
20 13 1
13 20 1
20 37 1
37 7 1
7 37 1
37 38 1
7 38 1
7 39 1
