13 16 19
16 13 17
15 13 13
18 11 12
16 12 11
13 15 11
11 18 10
12 16 8
22 13 6
13 22 6
16 22 6
15 11 5
11 15 5
13 21 5
21 13 5
22 16 5
2 3 4
23 24 3
22 12 3
12 22 3
11 16 3
3 2 2
12 15 2
15 16 2
11 19 2
20 16 2
24 23 2
16 11 2
16 15 2
31 22 2
22 31 2
1 2 1
3 4 1
4 2 1
3 5 1
5 6 1
6 7 1
7 8 1
8 9 1
9 10 1
10 11 1
11 12 1
12 11 1
11 13 1
13 14 1
14 13 1
13 12 1
12 13 1
13 11 1
11 17 1
17 18 1
19 11 1
19 18 1
11 20 1
16 21 1
21 22 1
22 15 1
15 23 1
23 12 1
12 23 1
24 12 1
12 25 1
25 11 1
11 26 1
26 27 1
27 13 1
22 28 1
28 11 1
13 29 1
29 18 1
18 30 1
30 18 1
18 31 1
31 12 1
12 14 1
14 12 1
12 32 1
32 19 1
19 16 1
12 20 1
12 18 1
18 12 1
