30 9 36
9 10 35
9 30 35
10 9 33
15 9 13
9 15 11
9 20 5
20 9 5
9 27 5
2 3 4
26 27 4
27 26 4
27 9 4
13 14 2
14 12 2
9 18 2
18 9 2
23 15 2
15 24 2
27 30 2
10 32 2
32 9 2
9 32 2
1 2 1
3 2 1
3 4 1
4 2 1
3 5 1
5 2 1
3 6 1
6 7 1
7 8 1
8 9 1
9 11 1
11 12 1
12 13 1
14 13 1
13 15 1
15 13 1
12 14 1
12 15 1
15 14 1
14 15 1
9 16 1
16 17 1
17 16 1
16 9 1
18 19 1
19 18 1
9 21 1
21 22 1
22 9 1
9 23 1
15 23 1
24 15 1
24 25 1
25 10 1
9 26 1
26 15 1
10 28 1
28 29 1
29 30 1
30 29 1
29 9 1
30 27 1
10 27 1
27 31 1
31 9 1
30 10 1
10 30 1
32 10 1
