9 13 46
13 9 45
22 13 24
29 22 22
13 22 21
22 9 20
22 29 19
9 22 18
13 12 17
12 13 15
8 9 14
30 9 13
9 8 12
19 22 12
22 19 11
9 30 11
13 30 10
30 13 6
9 31 6
9 10 5
10 9 5
9 11 5
9 29 5
2 3 4
11 9 4
14 13 4
9 18 4
12 14 4
29 9 4
30 22 4
31 9 4
13 14 3
18 9 3
14 12 3
13 29 3
3 2 2
9 12 2
17 9 2
25 9 2
12 9 2
29 13 2
31 13 2
1 2 1
3 4 1
4 2 1
3 5 1
5 6 1
6 7 1
7 8 1
10 8 1
11 10 1
14 9 1
12 15 1
15 13 1
13 16 1
16 13 1
13 17 1
9 17 1
18 19 1
19 20 1
20 21 1
21 19 1
22 23 1
23 19 1
19 13 1
9 24 1
24 25 1
9 25 1
9 7 1
7 22 1
13 26 1
26 13 1
9 27 1
27 9 1
22 28 1
28 9 1
9 14 1
30 31 1
31 30 1
30 32 1
32 30 1
30 33 1
33 30 1
22 34 1
34 30 1
22 30 1
13 31 1
31 22 1
9 35 1
35 36 1
36 37 1
37 38 1
38 39 1
39 40 1
40 29 1
