8 7 27
7 8 23
9 8 15
8 9 12
7 9 10
12 14 8
9 7 7
9 36 7
21 8 6
14 12 6
36 9 6
7 21 5
8 21 5
21 9 5
9 33 5
33 9 5
2 3 4
9 21 4
14 9 3
11 22 3
22 11 3
28 7 3
26 37 3
3 2 2
8 12 2
7 12 2
14 7 2
8 14 2
24 16 2
16 24 2
21 7 2
26 28 2
30 31 2
31 30 2
26 35 2
37 9 2
36 7 2
1 2 1
3 4 1
4 2 1
3 5 1
5 6 1
6 7 1
9 10 1
10 11 1
11 12 1
12 13 1
13 8 1
12 8 1
12 7 1
12 9 1
14 15 1
15 12 1
9 16 1
16 14 1
9 14 1
7 14 1
14 8 1
8 17 1
17 18 1
18 17 1
17 19 1
19 18 1
18 19 1
19 20 1
20 19 1
19 8 1
21 14 1
14 11 1
11 23 1
23 24 1
24 7 1
9 24 1
24 23 1
23 12 1
12 21 1
21 25 1
25 8 1
8 23 1
23 8 1
7 26 1
26 27 1
27 26 1
7 29 1
29 26 1
8 29 1
29 30 1
31 26 1
26 31 1
30 28 1
7 32 1
32 33 1
33 30 1
30 33 1
33 31 1
31 28 1
28 8 1
9 34 1
34 26 1
35 36 1
36 26 1
37 36 1
9 26 1
37 26 1
26 9 1
33 26 1
35 26 1
9 37 1
37 8 1
8 34 1
34 36 1
36 35 1
35 37 1
7 37 1
37 33 1
7 36 1
36 38 1
38 8 1
