16 17 22
17 16 20
13 19 13
19 13 13
21 22 13
22 21 11
22 24 8
24 22 8
19 32 8
32 19 7
11 9 6
9 11 5
22 13 5
2 3 4
27 26 4
22 27 4
13 22 4
26 27 3
25 22 3
26 25 3
27 22 3
39 40 3
3 2 2
10 11 2
9 13 2
17 13 2
22 25 2
25 26 2
26 22 2
22 26 2
35 30 2
40 41 2
41 39 2
17 44 2
44 17 2
1 2 1
3 4 1
4 2 1
3 5 1
5 6 1
6 7 1
7 8 1
8 9 1
9 10 1
11 10 1
11 12 1
12 11 1
11 13 1
13 11 1
13 14 1
14 9 1
13 15 1
15 16 1
16 18 1
18 16 1
13 20 1
20 16 1
17 19 1
13 21 1
21 23 1
23 21 1
27 25 1
25 27 1
13 28 1
28 29 1
29 30 1
30 31 1
31 30 1
30 19 1
19 33 1
33 17 1
17 34 1
34 30 1
30 35 1
30 36 1
36 30 1
30 37 1
37 35 1
30 22 1
22 38 1
38 25 1
25 21 1
22 39 1
40 23 1
23 41 1
41 23 1
23 24 1
24 21 1
21 19 1
32 22 1
22 42 1
42 19 1
19 17 1
19 28 1
28 43 1
43 17 1
17 45 1
