9 8 19
8 7 18
8 9 16
7 8 15
7 24 15
8 16 13
24 7 13
16 8 12
10 8 10
7 9 8
8 10 8
7 10 6
9 7 6
7 11 6
17 8 6
8 17 6
10 7 5
7 22 5
22 7 5
2 3 4
9 10 4
11 7 4
17 16 4
10 9 3
16 17 3
3 2 2
16 7 2
19 16 2
8 21 2
24 9 2
1 2 1
3 4 1
4 2 1
3 5 1
5 6 1
6 7 1
8 11 1
11 8 1
11 12 1
12 13 1
13 8 1
9 14 1
14 15 1
15 16 1
9 11 1
11 17 1
16 18 1
18 19 1
16 19 1
19 20 1
20 19 1
16 9 1
21 7 1
22 9 1
21 8 1
8 22 1
7 23 1
23 10 1
10 17 1
17 7 1
11 9 1
24 8 1
8 24 1
7 25 1
25 13 1
13 7 1
24 26 1
26 17 1
17 9 1
9 24 1
