14 1 71
1 14 66
1 8 16
8 1 14
12 1 14
1 12 13
1 21 13
21 1 12
1 25 12
23 11 11
11 23 11
25 1 10
1 7 9
7 1 9
18 1 9
1 9 8
9 1 8
1 18 8
14 16 7
1 26 7
16 14 6
26 1 6
16 1 5
28 30 5
20 1 4
14 21 4
1 23 4
25 14 4
11 14 4
1 16 4
23 1 4
1 13 3
13 1 3
1 20 3
21 14 3
26 14 3
23 28 3
30 28 3
1 19 2
19 1 2
22 1 2
1 24 2
24 1 2
14 25 2
14 26 2
1 29 2
29 1 2
14 29 2
29 14 2
28 23 2
30 14 2
1 31 2
28 11 2
11 28 2
14 11 2
1 2 1
2 3 1
3 4 1
4 1 1
1 5 1
5 6 1
6 1 1
1 10 1
10 11 1
11 9 1
9 12 1
14 15 1
15 16 1
8 17 1
17 1 1
21 20 1
21 22 1
1 22 1
23 14 1
16 11 1
1 11 1
1 27 1
27 14 1
14 28 1
28 1 1
1 28 1
23 30 1
30 29 1
29 30 1
31 1 1
31 11 1
11 31 1
31 14 1
14 31 1
31 29 1
29 23 1
30 23 1
8 23 1
23 18 1
18 14 1
14 32 1
32 23 1
14 18 1
1 32 1
32 14 1
1 33 1
