16 15 19
15 16 18
11 16 12
16 11 12
16 17 11
17 16 11
35 31 9
31 35 9
11 13 8
15 22 7
30 16 7
13 11 7
22 15 6
15 21 5
34 35 5
35 34 5
15 53 5
53 15 5
10 11 4
21 15 4
30 31 4
16 30 4
34 31 4
48 16 4
16 20 3
20 16 3
15 29 3
29 15 3
30 11 3
11 30 3
31 30 3
31 34 3
16 48 3
35 16 3
16 35 3
60 35 3
35 62 3
11 10 2
13 10 2
10 13 2
32 30 2
16 56 2
16 32 2
32 16 2
11 31 2
31 11 2
16 58 2
35 60 2
62 35 2
1 2 1
2 3 1
3 4 1
4 5 1
5 6 1
6 7 1
7 8 1
8 9 1
9 10 1
10 12 1
12 10 1
13 14 1
14 13 1
10 14 1
14 10 1
10 15 1
15 17 1
17 18 1
18 19 1
19 16 1
21 23 1
23 15 1
22 24 1
24 21 1
22 25 1
25 22 1
15 26 1
26 15 1
15 27 1
27 15 1
21 28 1
28 15 1
15 20 1
20 30 1
30 32 1
16 33 1
33 34 1
35 36 1
36 35 1
35 13 1
13 37 1
37 13 1
11 38 1
38 11 1
16 39 1
39 15 1
34 40 1
40 31 1
31 41 1
41 35 1
35 42 1
42 35 1
35 43 1
43 44 1
44 45 1
45 34 1
31 45 1
45 35 1
31 46 1
46 16 1
16 3 1
3 47 1
47 48 1
16 49 1
49 16 1
16 50 1
50 16 1
15 51 1
51 15 1
15 52 1
52 16 1
15 35 1
11 15 1
15 54 1
54 30 1
30 55 1
55 30 1
56 16 1
56 55 1
55 16 1
16 57 1
57 30 1
30 35 1
35 30 1
30 58 1
58 54 1
54 32 1
35 32 1
58 59 1
59 30 1
32 60 1
60 61 1
61 35 1
35 61 1
61 60 1
62 63 1
63 64 1
64 11 1
13 65 1
65 66 1
66 10 1
11 67 1
67 10 1
13 68 1
68 2 1
2 69 1
69 15 1
15 70 1
70 15 1
58 16 1
