5 3 18
3 5 17
64 3 9
3 78 9
78 3 9
3 64 8
78 80 5
80 78 5
51 3 4
80 3 4
3 91 4
64 73 4
136 3 4
3 51 3
5 90 3
91 3 3
73 64 3
3 7 3
5 51 3
30 5 3
5 30 3
32 30 2
30 3 2
68 64 2
64 30 2
73 3 2
3 106 2
161 159 2
159 3 2
51 5 2
3 190 2
51 30 2
30 91 2
51 64 2
3 73 2
1 2 1
2 3 1
3 4 1
4 5 1
5 6 1
6 7 1
7 8 1
8 9 1
9 10 1
10 11 1
11 12 1
12 13 1
13 14 1
14 15 1
15 16 1
16 17 1
17 18 1
18 19 1
19 20 1
20 5 1
5 21 1
21 3 1
3 22 1
22 23 1
23 24 1
24 25 1
25 26 1
26 27 1
27 28 1
28 29 1
29 27 1
27 30 1
30 31 1
31 32 1
30 33 1
33 34 1
34 35 1
35 3 1
3 36 1
36 37 1
37 38 1
38 30 1
3 39 1
39 40 1
40 41 1
41 42 1
42 5 1
3 43 1
43 44 1
44 3 1
3 45 1
45 46 1
46 47 1
47 48 1
48 49 1
49 50 1
50 51 1
51 52 1
52 53 1
53 3 1
3 54 1
54 55 1
55 56 1
56 57 1
57 58 1
58 59 1
59 60 1
60 61 1
61 62 1
62 63 1
63 64 1
64 65 1
65 66 1
66 67 1
67 30 1
30 68 1
64 69 1
69 70 1
70 64 1
64 71 1
71 32 1
30 64 1
30 72 1
72 73 1
73 30 1
30 73 1
3 30 1
30 74 1
74 75 1
75 76 1
76 77 1
77 78 1
78 79 1
79 78 1
78 30 1
30 81 1
81 82 1
82 3 1
78 83 1
83 80 1
78 84 1
84 78 1
3 85 1
85 3 1
3 16 1
16 51 1
51 86 1
86 51 1
51 78 1
78 51 1
3 87 1
87 78 1
78 88 1
88 80 1
3 89 1
89 3 1
78 90 1
90 5 1
90 91 1
91 51 1
51 92 1
92 5 1
90 78 1
3 93 1
93 78 1
78 94 1
94 80 1
3 82 1
82 20 1
20 95 1
95 78 1
78 61 1
61 80 1
80 96 1
96 80 1
80 97 1
97 98 1
98 99 1
99 78 1
3 100 1
100 101 1
101 94 1
94 3 1
3 102 1
102 3 1
3 103 1
103 104 1
104 3 1
3 20 1
20 3 1
5 20 1
20 105 1
105 3 1
106 3 1
3 107 1
107 3 1
3 108 1
108 109 1
109 110 1
110 91 1
91 111 1
111 112 1
112 113 1
113 114 1
114 115 1
115 116 1
116 80 1
106 117 1
117 118 1
118 119 1
119 120 1
120 61 1
61 121 1
121 122 1
122 123 1
123 16 1
16 78 1
78 124 1
124 125 1
125 126 1
126 61 1
61 125 1
125 73 1
73 127 1
127 128 1
128 64 1
64 129 1
129 64 1
73 78 1
78 85 1
85 78 1
78 130 1
130 78 1
3 131 1
131 64 1
64 132 1
132 64 1
64 133 1
133 64 1
3 134 1
134 3 1
3 135 1
135 64 1
3 136 1
3 68 1
30 137 1
137 64 1
64 138 1
138 139 1
139 128 1
128 140 1
140 141 1
141 69 1
69 3 1
3 142 1
142 3 1
7 143 1
143 144 1
144 145 1
145 3 1
3 146 1
146 147 1
147 148 1
148 73 1
73 62 1
62 149 1
149 78 1
78 150 1
150 151 1
151 152 1
152 153 1
153 152 1
152 78 1
78 154 1
154 78 1
78 155 1
155 156 1
156 157 1
157 3 1
3 158 1
158 159 1
159 160 1
160 159 1
159 161 1
3 159 1
3 162 1
162 163 1
163 164 1
164 165 1
165 135 1
135 166 1
166 167 1
167 143 1
143 168 1
168 169 1
169 170 1
170 171 1
171 161 1
159 172 1
172 173 1
173 174 1
174 175 1
175 78 1
3 176 1
176 3 1
78 177 1
177 178 1
178 179 1
179 180 1
180 3 1
78 181 1
181 182 1
182 183 1
183 78 1
78 184 1
184 78 1
78 82 1
82 5 1
51 185 1
185 186 1
186 187 1
187 188 1
188 5 1
3 189 1
189 90 1
90 3 1
190 3 1
90 191 1
191 30 1
3 90 1
90 51 1
51 192 1
192 51 1
51 193 1
193 3 1
3 194 1
194 195 1
195 196 1
196 197 1
197 198 1
198 199 1
199 200 1
200 3 1
3 201 1
201 202 1
202 203 1
203 30 1
30 204 1
204 30 1
30 99 1
99 90 1
90 205 1
205 51 1
30 51 1
30 206 1
206 207 1
207 208 1
208 78 1
78 209 1
209 210 1
210 61 1
61 211 1
211 212 1
212 213 1
213 178 1
178 80 1
80 214 1
214 215 1
215 213 1
213 216 1
216 217 1
217 218 1
218 182 1
182 61 1
61 182 1
182 219 1
219 218 1
218 220 1
220 221 1
221 5 1
5 222 1
222 223 1
223 224 1
224 214 1
214 91 1
91 5 1
5 214 1
214 177 1
177 5 1
5 225 1
225 226 1
226 5 1
5 227 1
227 101 1
101 5 1
3 228 1
228 3 1
91 229 1
229 91 1
91 230 1
230 3 1
3 231 1
231 5 1
5 232 1
232 233 1
233 234 1
234 235 1
235 236 1
236 235 1
235 237 1
237 238 1
238 239 1
239 5 1
5 240 1
240 241 1
241 242 1
242 5 1
5 243 1
243 244 1
244 209 1
209 245 1
245 3 1
64 246 1
246 71 1
71 135 1
135 247 1
247 248 1
248 51 1
64 206 1
206 51 1
64 249 1
249 51 1
51 250 1
250 5 1
5 251 1
251 252 1
252 73 1
73 253 1
253 3 1
73 254 1
254 148 1
148 255 1
255 256 1
256 64 1
64 257 1
257 3 1
3 258 1
258 136 1
136 259 1
259 73 1
73 250 1
250 260 1
260 136 1
136 64 1
64 134 1
134 261 1
261 262 1
262 263 1
263 264 1
264 265 1
265 266 1
266 267 1
267 268 1
268 269 1
269 258 1
258 270 1
270 271 1
271 61 1
61 272 1
272 124 1
124 273 1
273 274 1
274 61 1
61 3 1
190 5 1
5 275 1
275 82 1
82 276 1
276 277 1
277 82 1
82 278 1
278 279 1
279 280 1
280 281 1
281 282 1
282 133 1
133 283 1
283 284 1
284 285 1
285 286 1
286 30 1
30 287 1
287 30 1
91 288 1
288 5 1
5 289 1
289 30 1
3 104 1
104 290 1
290 5 1
5 291 1
291 3 1
91 136 1
7 3 1
3 292 1
292 3 1
7 293 1
293 294 1
294 136 1
3 37 1
37 136 1
3 161 1
161 295 1
295 296 1
296 297 1
