14 3 25
3 14 25
2 3 22
16 3 21
3 16 19
3 2 16
3 18 16
3 4 14
18 3 14
23 3 14
3 23 14
4 3 12
3 29 9
29 3 8
3 7 7
7 3 5
3 17 5
9 3 4
3 9 4
17 3 4
3 27 4
27 3 4
18 20 3
5 3 2
3 12 2
12 3 2
14 2 2
3 15 2
15 3 2
17 16 2
20 3 2
20 21 2
20 18 2
26 3 2
29 2 2
1 2 1
4 5 1
3 6 1
6 2 1
7 8 1
8 3 1
7 9 1
3 10 1
10 3 1
9 7 1
7 2 1
3 11 1
11 2 1
2 13 1
13 3 1
3 13 1
13 14 1
2 14 1
3 5 1
2 16 1
16 17 1
18 19 1
19 20 1
3 20 1
21 20 1
21 18 1
3 22 1
22 23 1
23 2 1
2 23 1
23 24 1
24 3 1
4 2 1
18 2 1
3 25 1
25 2 1
2 26 1
3 26 1
3 28 1
28 3 1
2 29 1
