8 10 78
10 8 78
9 8 34
8 9 32
8 5 21
5 8 19
39 8 16
39 9 15
9 39 15
4 5 14
8 39 14
5 4 13
5 10 13
38 8 13
8 52 13
52 8 12
8 35 12
8 38 11
35 8 11
10 5 10
8 75 10
75 8 10
8 4 9
38 39 9
39 38 9
8 54 9
54 8 9
4 8 8
3 4 7
4 3 7
13 8 5
43 3 5
3 43 5
8 73 5
7 8 4
8 13 4
73 8 4
8 7 3
4 10 3
10 13 3
9 10 3
10 4 3
8 56 3
58 39 3
8 14 2
14 8 2
10 17 2
5 16 2
3 8 2
8 3 2
16 8 2
10 9 2
4 36 2
33 38 2
38 33 2
39 43 2
43 9 2
8 49 2
56 8 2
39 58 2
64 39 2
39 70 2
72 8 2
1 2 1
2 3 1
3 6 1
6 7 1
5 9 1
9 4 1
10 11 1
11 8 1
10 12 1
12 10 1
13 10 1
8 15 1
15 16 1
16 10 1
17 18 1
18 9 1
8 19 1
19 9 1
16 5 1
5 3 1
3 20 1
20 3 1
3 5 1
17 5 1
8 21 1
21 22 1
22 10 1
8 23 1
23 24 1
24 8 1
4 18 1
18 10 1
13 25 1
25 8 1
10 26 1
26 27 1
27 28 1
28 8 1
8 29 1
29 8 1
8 30 1
30 31 1
31 8 1
8 32 1
32 33 1
33 5 1
5 34 1
34 35 1
35 3 1
3 35 1
35 4 1
36 4 1
36 33 1
33 37 1
37 38 1
38 40 1
40 33 1
33 41 1
41 42 1
42 9 1
9 42 1
42 39 1
43 4 1
4 43 1
9 38 1
38 4 1
4 35 1
35 43 1
43 8 1
9 43 1
43 44 1
44 43 1
39 45 1
45 46 1
46 39 1
39 46 1
46 47 1
47 39 1
8 48 1
48 38 1
49 8 1
49 9 1
9 50 1
50 51 1
51 9 1
43 38 1
52 53 1
53 8 1
8 55 1
55 19 1
19 8 1
56 57 1
57 38 1
8 58 1
39 59 1
59 60 1
60 61 1
61 39 1
8 16 1
8 62 1
62 8 1
35 63 1
63 8 1
8 64 1
38 65 1
65 8 1
8 66 1
66 39 1
8 67 1
67 68 1
68 69 1
69 43 1
43 39 1
70 71 1
71 72 1
8 72 1
73 64 1
39 74 1
74 8 1
8 76 1
76 39 1
70 8 1
8 77 1
77 8 1
8 78 1
78 79 1
79 8 1
8 80 1
80 5 1
8 81 1
81 8 1
10 39 1
