11 45 23
45 11 20
11 22 16
22 11 15
12 11 14
11 12 13
31 11 13
61 11 13
11 31 12
37 11 12
11 37 12
11 61 12
21 11 8
11 19 7
19 11 7
38 11 7
11 14 6
14 11 6
11 21 6
37 38 6
11 38 6
28 11 5
38 37 5
11 16 4
11 28 4
12 14 3
14 12 3
27 22 3
48 11 3
11 52 3
14 15 2
16 12 2
15 12 2
16 11 2
15 14 2
22 21 2
21 22 2
12 22 2
26 11 2
11 26 2
11 48 2
52 53 2
1 2 1
2 3 1
3 4 1
4 5 1
5 6 1
6 7 1
7 8 1
8 9 1
9 10 1
10 11 1
12 13 1
13 12 1
15 16 1
11 15 1
15 11 1
11 17 1
17 15 1
12 15 1
14 18 1
18 12 1
12 20 1
20 14 1
16 15 1
12 21 1
22 23 1
23 11 1
11 24 1
24 25 1
25 26 1
26 27 1
22 27 1
22 29 1
29 12 1
22 12 1
22 30 1
30 11 1
12 31 1
31 12 1
22 26 1
26 32 1
32 11 1
11 33 1
33 21 1
22 34 1
34 22 1
22 35 1
35 22 1
11 27 1
22 28 1
11 36 1
36 37 1
12 39 1
39 11 1
11 40 1
40 41 1
41 42 1
42 43 1
43 44 1
44 45 1
45 46 1
46 45 1
45 47 1
47 31 1
45 48 1
45 31 1
31 49 1
49 38 1
11 50 1
50 51 1
51 11 1
53 11 1
53 52 1
52 11 1
52 45 1
38 54 1
54 11 1
11 55 1
55 56 1
56 37 1
37 57 1
57 58 1
58 59 1
59 11 1
45 60 1
60 11 1
45 61 1
61 62 1
62 11 1
11 63 1
63 45 1
11 64 1
64 22 1
45 65 1
65 31 1
31 37 1
37 61 1
