4 13 25
13 4 23
4 15 19
15 4 19
4 10 10
10 4 10
3 4 9
7 4 9
16 4 9
4 7 8
4 16 8
4 3 7
4 14 7
22 4 7
26 4 7
4 26 7
14 4 6
8 4 5
4 8 5
4 22 5
13 7 3
4 25 3
28 13 3
25 4 2
13 28 2
7 22 2
1 2 1
2 3 1
4 5 1
5 6 1
6 4 1
7 3 1
7 8 1
8 9 1
9 4 1
10 7 1
7 10 1
7 11 1
11 12 1
12 11 1
11 4 1
7 14 1
14 7 1
15 16 1
14 15 1
16 17 1
17 18 1
18 16 1
4 17 1
17 16 1
4 19 1
19 18 1
18 4 1
16 20 1
20 15 1
15 7 1
4 21 1
21 22 1
4 23 1
23 24 1
24 4 1
4 24 1
24 7 1
25 26 1
26 7 1
26 27 1
27 13 1
13 26 1
7 28 1
22 7 1
