2 17 338
17 2 329
14 2 46
2 14 42
17 47 20
2 21 19
21 2 18
47 17 18
26 2 17
2 26 16
19 2 12
2 15 11
15 2 11
2 42 11
42 2 11
2 19 10
17 32 7
32 17 7
4 2 6
47 2 6
17 4 6
7 2 5
15 16 5
16 15 5
17 14 5
2 3 4
2 7 4
32 33 4
2 63 4
63 2 4
3 4 3
17 19 3
14 17 3
2 31 3
2 32 3
33 32 3
34 2 3
2 36 3
36 2 3
14 46 3
46 14 3
2 47 3
2 53 3
53 2 3
2 64 3
64 2 3
3 2 2
2 16 2
22 2 2
21 23 2
23 2 2
14 28 2
2 34 2
33 17 2
31 2 2
38 39 2
39 38 2
2 43 2
43 14 2
17 51 2
2 52 2
14 54 2
54 14 2
4 17 2
2 58 2
58 2 2
2 62 2
62 2 2
1 2 1
4 3 1
2 4 1
4 5 1
5 6 1
6 7 1
2 6 1
6 2 1
2 8 1
8 9 1
9 10 1
10 11 1
11 12 1
12 2 1
2 13 1
13 2 1
16 2 1
2 18 1
18 2 1
19 17 1
2 20 1
20 2 1
17 21 1
21 22 1
2 23 1
23 21 1
17 24 1
24 2 1
2 25 1
25 2 1
2 24 1
24 25 1
25 24 1
24 17 1
17 26 1
26 27 1
27 26 1
28 17 1
28 14 1
17 28 1
28 2 1
2 29 1
29 30 1
30 2 1
31 17 1
17 33 1
33 2 1
32 2 1
2 33 1
33 34 1
34 33 1
32 34 1
2 35 1
35 2 1
31 37 1
37 2 1
2 37 1
37 31 1
2 38 1
38 40 1
40 39 1
39 40 1
40 41 1
41 2 1
43 44 1
44 45 1
45 43 1
47 48 1
48 17 1
17 49 1
49 17 1
2 49 1
49 2 1
17 50 1
50 17 1
51 17 1
51 2 1
52 2 1
52 17 1
53 14 1
17 53 1
53 17 1
14 53 1
2 55 1
55 54 1
54 55 1
55 14 1
2 22 1
15 56 1
56 57 1
57 14 1
58 14 1
14 58 1
14 47 1
17 15 1
16 47 1
47 58 1
58 59 1
59 60 1
60 47 1
2 61 1
61 17 1
2 65 1
