6 9 27
9 6 27
6 7 22
7 6 17
9 28 15
28 9 14
4 6 6
28 36 6
36 28 6
7 4 5
7 9 5
42 9 5
5 4 4
8 9 4
9 10 4
10 9 4
9 7 4
9 42 4
4 5 3
5 6 3
4 7 3
6 5 3
27 9 3
32 28 3
6 4 3
9 8 2
18 19 2
20 18 2
26 21 2
9 27 2
29 16 2
7 28 2
5 7 2
9 31 2
9 32 2
28 32 2
28 33 2
37 38 2
44 9 2
9 44 2
1 2 1
2 3 1
3 4 1
6 8 1
10 8 1
9 11 1
11 8 1
8 6 1
6 12 1
12 13 1
13 14 1
14 13 1
13 6 1
6 15 1
15 13 1
13 16 1
16 17 1
17 13 1
13 18 1
19 18 1
18 20 1
19 20 1
18 6 1
9 18 1
18 5 1
5 9 1
9 21 1
21 22 1
22 9 1
9 23 1
23 6 1
6 23 1
23 5 1
4 9 1
7 24 1
24 7 1
7 25 1
25 7 1
7 26 1
21 26 1
26 27 1
28 29 1
16 30 1
30 16 1
16 29 1
16 6 1
28 6 1
31 9 1
31 6 1
6 25 1
25 16 1
16 7 1
4 10 1
33 28 1
33 34 1
34 28 1
28 16 1
16 35 1
35 6 1
28 4 1
6 28 1
36 37 1
38 39 1
39 37 1
38 40 1
40 36 1
28 41 1
41 42 1
32 43 1
43 26 1
21 16 1
16 5 1
7 5 1
7 44 1
44 6 1
6 45 1
45 46 1
