5 3 14
3 5 14
34 3 13
3 34 12
3 49 11
49 3 11
61 3 11
3 61 11
3 25 10
63 2 10
2 63 10
3 36 9
33 3 8
3 23 7
24 3 7
25 3 7
3 28 7
23 3 6
28 3 6
3 33 6
36 3 6
18 37 6
63 3 6
6 3 5
2 16 5
18 30 5
30 18 5
31 3 5
37 18 5
3 6 4
16 2 4
18 19 4
22 3 4
3 24 4
3 63 4
19 18 3
21 18 3
18 21 3
3 22 3
3 31 3
36 31 3
43 36 3
36 42 3
42 36 3
36 43 3
48 3 3
2 61 3
61 2 3
5 6 2
23 24 2
3 18 2
34 33 2
25 34 2
41 42 2
42 43 2
3 47 2
47 3 2
3 48 2
55 56 2
56 55 2
15 3 2
60 3 2
3 60 2
18 64 2
64 18 2
1 2 1
2 3 1
3 4 1
4 5 1
6 5 1
3 7 1
7 8 1
8 9 1
9 10 1
10 9 1
9 2 1
2 8 1
8 2 1
2 11 1
11 12 1
12 13 1
13 7 1
7 3 1
3 14 1
14 15 1
15 16 1
16 17 1
17 18 1
19 17 1
17 20 1
20 17 1
17 21 1
21 19 1
18 20 1
20 18 1
19 22 1
3 26 1
26 3 1
3 27 1
27 23 1
28 29 1
29 24 1
18 2 1
16 3 1
3 32 1
32 33 1
33 34 1
25 33 1
33 35 1
35 3 1
36 18 1
18 38 1
38 18 1
37 39 1
39 37 1
37 40 1
40 17 1
17 40 1
40 33 1
33 31 1
31 33 1
33 36 1
31 34 1
34 36 1
36 41 1
43 41 1
41 43 1
43 42 1
42 41 1
36 25 1
25 36 1
36 44 1
44 41 1
41 36 1
36 45 1
45 3 1
3 46 1
46 3 1
49 48 1
48 49 1
49 50 1
50 48 1
49 51 1
51 52 1
52 53 1
53 49 1
3 54 1
54 49 1
3 55 1
55 57 1
57 49 1
49 15 1
49 58 1
58 49 1
3 15 1
3 59 1
59 60 1
60 61 1
3 62 1
62 3 1
61 63 1
63 49 1
49 63 1
18 65 1
65 18 1
18 66 1
66 67 1
67 18 1
21 68 1
68 19 1
19 21 1
18 36 1
43 19 1
19 36 1
36 63 1
