8 31 20
31 8 19
14 8 16
8 14 14
8 29 13
29 8 11
8 4 10
4 8 9
8 17 8
17 8 8
12 8 8
4 3 7
8 21 7
8 12 7
3 4 6
21 12 6
8 24 6
24 8 6
5 7 5
5 8 5
8 5 5
21 8 5
7 5 4
4 5 4
19 12 4
12 19 4
12 21 4
38 8 4
43 24 4
24 43 4
5 4 3
8 9 3
9 8 3
8 25 3
27 8 3
8 27 3
37 21 3
8 38 3
2 3 2
14 15 2
15 8 2
25 8 2
25 14 2
14 25 2
25 20 2
17 14 2
28 12 2
12 28 2
21 37 2
12 44 2
44 12 2
1 2 1
3 5 1
5 6 1
6 5 1
7 2 1
3 8 1
9 10 1
10 11 1
11 4 1
4 12 1
12 4 1
4 11 1
11 5 1
5 13 1
13 14 1
15 14 1
8 15 1
8 16 1
16 8 1
8 18 1
18 8 1
8 19 1
19 14 1
8 20 1
20 8 1
12 22 1
22 23 1
23 8 1
25 26 1
26 25 1
8 26 1
26 8 1
20 17 1
17 25 1
20 14 1
14 27 1
27 28 1
28 21 1
21 28 1
28 8 1
5 15 1
15 17 1
29 30 1
30 8 1
31 32 1
32 33 1
33 34 1
34 8 1
8 35 1
35 8 1
8 36 1
36 8 1
21 5 1
5 12 1
21 30 1
30 21 1
21 9 1
9 37 1
12 38 1
8 39 1
39 40 1
40 39 1
39 41 1
41 40 1
40 42 1
42 41 1
41 4 1
3 43 1
43 8 1
29 12 1
44 21 1
12 25 1
25 17 1
14 9 1
8 44 1
