4 2 190
2 4 189
5 2 100
2 5 93
2 38 47
38 2 46
4 27 37
27 4 35
2 44 30
44 2 26
18 4 24
2 32 24
32 2 24
27 2 24
5 4 22
2 27 22
4 5 21
4 18 20
4 29 15
19 4 14
4 19 12
29 4 11
44 4 11
29 2 10
2 29 10
27 32 10
4 44 10
29 18 9
2 11 9
32 27 9
2 9 8
9 2 8
4 40 8
40 4 8
5 18 7
18 5 6
21 19 6
18 29 6
2 18 6
18 2 6
27 38 6
38 27 6
44 5 6
2 26 6
26 2 6
8 4 5
4 21 5
32 33 5
11 2 5
2 37 5
37 2 5
2 8 4
19 21 4
26 4 4
33 32 4
9 10 3
12 11 3
21 4 3
20 4 3
4 26 3
2 33 3
34 2 3
33 2 3
11 27 3
41 38 3
4 8 2
10 11 2
11 12 2
12 14 2
16 2 2
17 18 2
19 20 2
21 22 2
19 23 2
4 20 2
4 25 2
25 19 2
30 2 2
2 34 2
11 14 2
14 12 2
2 17 2
38 5 2
27 41 2
4 32 2
32 4 2
27 42 2
42 27 2
5 44 2
1 2 1
2 3 1
3 4 1
2 6 1
6 2 1
2 7 1
7 2 1
8 2 1
4 9 1
11 13 1
13 12 1
14 9 1
10 12 1
12 15 1
15 9 1
11 9 1
9 16 1
16 4 1
4 16 1
2 16 1
4 17 1
18 19 1
20 21 1
22 21 1
22 19 1
20 19 1
23 21 1
23 24 1
24 4 1
4 24 1
24 22 1
22 24 1
24 21 1
21 24 1
24 25 1
25 4 1
25 20 1
21 25 1
21 26 1
26 21 1
19 27 1
27 28 1
28 5 1
2 30 1
29 5 1
2 31 1
31 2 1
33 34 1
14 11 1
2 10 1
10 2 1
11 35 1
35 11 1
11 15 1
15 2 1
2 35 1
35 2 1
2 36 1
36 27 1
4 30 1
37 5 1
5 37 1
17 2 1
38 39 1
39 2 1
2 39 1
39 5 1
38 41 1
2 43 1
43 4 1
4 15 1
15 5 1
27 44 1
5 45 1
45 44 1
2 46 1
46 5 1
5 47 1
47 2 1
44 48 1
48 2 1
5 49 1
49 5 1
4 50 1
50 2 1
2 12 1
12 2 1
18 26 1
