5 6 58
6 5 51
19 6 43
6 19 41
6 14 29
14 6 27
19 5 18
6 1 17
5 19 17
6 9 14
1 2 13
1 6 13
9 6 13
2 1 11
1 5 11
6 8 11
6 46 11
46 6 10
5 1 9
8 6 9
25 6 9
6 25 9
25 12 9
12 25 9
34 6 9
6 34 9
5 12 8
19 34 8
1 46 8
6 12 7
12 5 7
15 6 7
1 19 7
2 6 7
6 49 7
5 15 6
6 15 6
34 19 6
46 1 6
49 6 6
15 5 5
6 2 5
49 1 5
49 19 5
6 54 5
12 6 4
9 19 4
19 1 4
1 25 4
25 1 4
25 5 4
6 27 4
27 6 4
29 19 4
6 29 4
33 6 4
1 49 4
49 5 4
5 49 4
19 49 4
54 6 4
5 9 3
13 6 3
6 22 3
22 6 3
9 5 3
24 12 3
12 1 3
5 25 3
19 25 3
28 19 3
30 6 3
2 19 3
5 43 3
43 5 3
19 22 3
22 19 3
53 5 3
6 53 3
2 5 2
6 13 2
5 2 2
18 9 2
19 9 2
12 24 2
12 19 2
19 12 2
15 19 2
12 2 2
1 21 2
18 28 2
19 28 2
19 29 2
29 6 2
6 30 2
19 33 2
19 37 2
37 6 2
6 39 2
25 19 2
19 2 2
46 19 2
46 47 2
47 6 2
2 49 2
53 6 2
54 5 2
6 57 2
2 3 1
3 4 1
4 5 1
6 7 1
7 6 1
8 1 1
1 9 1
9 10 1
10 5 1
6 11 1
11 1 1
14 5 1
15 12 1
12 16 1
16 5 1
5 17 1
17 5 1
12 18 1
18 6 1
14 15 1
6 20 1
20 6 1
5 8 1
8 21 1
21 5 1
8 5 1
2 18 1
5 23 1
23 6 1
5 11 1
11 9 1
8 19 1
19 8 1
8 9 1
9 12 1
1 24 1
15 11 1
11 15 1
21 19 1
5 26 1
26 13 1
19 18 1
28 18 1
19 30 1
19 31 1
31 32 1
32 6 1
6 32 1
32 19 1
6 33 1
34 35 1
35 6 1
19 35 1
35 19 1
6 36 1
36 35 1
35 36 1
36 33 1
33 19 1
37 19 1
6 37 1
19 38 1
38 19 1
39 6 1
39 33 1
34 33 1
33 38 1
38 6 1
6 40 1
40 6 1
6 38 1
38 34 1
34 41 1
41 6 1
21 1 1
19 42 1
42 8 1
6 44 1
44 6 1
6 45 1
45 6 1
19 45 1
45 15 1
6 47 1
47 5 1
9 48 1
48 46 1
5 46 1
19 46 1
46 5 1
6 50 1
50 51 1
51 19 1
19 52 1
52 1 1
46 2 1
49 50 1
50 49 1
49 2 1
49 18 1
18 49 1
19 15 1
5 18 1
9 2 1
19 53 1
5 53 1
5 54 1
5 55 1
55 56 1
56 5 1
57 56 1
56 6 1
57 6 1
6 58 1
58 6 1
6 59 1
59 6 1
