3 18 336
18 3 327
15 3 46
3 15 42
18 50 20
3 22 19
22 3 18
50 18 18
27 3 17
3 27 16
20 3 12
3 16 11
16 3 11
3 45 11
45 3 11
3 20 10
18 35 7
35 18 7
5 3 6
50 3 6
18 5 6
8 3 5
16 17 5
17 16 5
18 15 5
3 4 4
3 8 4
35 36 4
3 67 4
67 3 4
4 5 3
18 20 3
15 18 3
3 34 3
3 35 3
36 35 3
37 3 3
3 39 3
39 3 3
15 49 3
49 15 3
3 50 3
3 57 3
57 3 3
3 68 3
68 3 3
4 3 2
3 17 2
23 3 2
22 24 2
24 3 2
15 29 2
3 37 2
36 18 2
34 3 2
41 42 2
42 41 2
3 46 2
46 15 2
18 55 2
3 56 2
15 58 2
58 15 2
5 18 2
3 62 2
62 3 2
3 66 2
66 3 2
1 2 1
2 3 1
5 4 1
3 5 1
5 6 1
6 7 1
7 8 1
3 7 1
7 3 1
3 9 1
9 10 1
10 11 1
11 12 1
12 13 1
13 3 1
3 14 1
14 3 1
17 3 1
3 19 1
19 3 1
20 18 1
3 21 1
21 3 1
18 22 1
22 23 1
3 24 1
24 22 1
18 25 1
25 3 1
3 26 1
26 3 1
3 25 1
25 26 1
26 25 1
25 18 1
18 27 1
27 28 1
28 27 1
29 18 1
29 15 1
18 29 1
29 3 1
3 30 1
30 3 1
18 31 1
31 18 1
3 32 1
32 33 1
33 3 1
34 18 1
18 36 1
36 3 1
35 3 1
3 36 1
36 37 1
37 36 1
35 37 1
3 38 1
38 3 1
34 40 1
40 3 1
3 40 1
40 34 1
3 41 1
41 43 1
43 42 1
42 43 1
43 44 1
44 3 1
46 47 1
47 48 1
48 46 1
50 51 1
51 18 1
18 52 1
52 18 1
18 53 1
53 18 1
3 53 1
53 3 1
18 54 1
54 18 1
55 18 1
55 3 1
56 3 1
56 18 1
57 15 1
18 57 1
57 18 1
15 57 1
3 59 1
59 58 1
58 59 1
59 15 1
3 23 1
16 60 1
60 61 1
61 15 1
62 15 1
15 62 1
15 50 1
18 16 1
17 50 1
50 62 1
62 63 1
63 64 1
64 50 1
3 65 1
65 18 1
3 69 1
