29 28 29
28 29 26
29 25 11
28 27 10
74 116 9
27 28 8
116 74 8
121 116 8
44 28 7
104 29 7
25 116 7
116 25 7
8 5 6
25 29 6
25 104 6
30 29 5
29 104 5
104 25 5
44 47 4
28 44 4
77 74 4
116 29 4
29 19 4
116 104 4
25 26 3
26 25 3
28 38 3
38 28 3
68 64 3
64 11 3
74 25 3
29 83 3
25 152 3
116 19 3
104 116 3
5 11 2
20 19 2
27 29 2
25 30 2
31 28 2
28 25 2
33 29 2
38 45 2
47 44 2
51 44 2
47 28 2
27 44 2
11 64 2
11 68 2
64 69 2
83 28 2
83 29 2
28 83 2
88 89 2
44 96 2
104 27 2
27 104 2
116 77 2
19 30 2
19 104 2
104 17 2
136 27 2
83 74 2
29 144 2
146 28 2
116 149 2
149 25 2
152 25 2
29 88 2
116 121 2
116 33 2
29 116 2
33 121 2
116 30 2
30 116 2
19 121 2
19 160 2
160 19 2
33 104 2
67 176 2
1 2 1
2 3 1
3 4 1
4 5 1
5 6 1
6 7 1
7 4 1
4 8 1
8 9 1
9 5 1
5 10 1
10 8 1
11 8 1
5 8 1
11 5 1
5 12 1
12 8 1
8 13 1
13 8 1
5 14 1
14 15 1
15 8 1
5 16 1
16 17 1
17 8 1
8 18 1
18 8 1
5 19 1
19 20 1
19 21 1
21 22 1
22 23 1
23 24 1
24 19 1
19 25 1
25 27 1
25 31 1
28 31 1
25 28 1
28 32 1
32 33 1
28 34 1
34 28 1
29 35 1
35 28 1
29 36 1
36 29 1
28 37 1
37 29 1
29 33 1
33 38 1
38 39 1
39 28 1
38 40 1
40 38 1
28 41 1
41 42 1
42 38 1
38 43 1
43 28 1
38 44 1
44 38 1
45 38 1
45 46 1
46 38 1
38 41 1
41 39 1
39 38 1
28 43 1
43 44 1
44 48 1
48 28 1
28 49 1
49 44 1
44 50 1
50 51 1
28 52 1
52 53 1
53 44 1
28 47 1
47 54 1
54 44 1
44 55 1
55 44 1
47 51 1
44 56 1
56 44 1
44 51 1
51 47 1
28 57 1
57 44 1
44 58 1
58 59 1
59 60 1
60 61 1
61 44 1
44 62 1
62 17 1
17 28 1
28 40 1
40 27 1
44 29 1
29 27 1
27 63 1
63 64 1
64 65 1
65 66 1
66 67 1
67 64 1
64 68 1
64 16 1
16 11 1
69 67 1
67 68 1
68 17 1
17 64 1
69 70 1
70 66 1
66 71 1
71 72 1
72 67 1
67 73 1
73 74 1
74 75 1
75 76 1
76 77 1
25 78 1
78 19 1
19 79 1
79 29 1
29 30 1
25 80 1
80 81 1
81 29 1
28 82 1
82 29 1
83 84 1
84 83 1
28 85 1
85 83 1
25 83 1
83 86 1
86 28 1
83 87 1
87 83 1
83 77 1
74 28 1
29 17 1
17 88 1
89 29 1
28 90 1
90 91 1
91 28 1
29 92 1
92 93 1
93 94 1
94 95 1
95 90 1
90 44 1
96 44 1
28 97 1
97 44 1
96 29 1
28 98 1
98 28 1
28 99 1
99 27 1
28 100 1
100 27 1
28 101 1
101 102 1
102 74 1
25 77 1
74 103 1
103 74 1
27 105 1
105 106 1
106 104 1
104 107 1
107 27 1
104 108 1
108 80 1
80 109 1
109 29 1
28 110 1
110 29 1
28 17 1
17 29 1
29 111 1
111 88 1
89 112 1
112 27 1
27 113 1
113 28 1
27 114 1
114 74 1
74 115 1
115 74 1
116 117 1
117 116 1
116 118 1
118 74 1
74 119 1
119 116 1
77 116 1
74 120 1
120 74 1
74 121 1
29 122 1
122 123 1
123 16 1
16 78 1
78 124 1
124 104 1
17 125 1
125 126 1
126 125 1
125 19 1
19 122 1
122 127 1
127 19 1
104 128 1
128 129 1
129 122 1
122 104 1
104 122 1
122 130 1
130 104 1
104 19 1
19 131 1
131 132 1
132 133 1
133 134 1
134 129 1
129 44 1
44 122 1
122 44 1
44 135 1
135 28 1
29 136 1
27 137 1
137 29 1
29 138 1
138 139 1
139 88 1
88 140 1
140 141 1
141 29 1
29 74 1
74 29 1
29 142 1
142 83 1
83 5 1
5 83 1
74 83 1
74 143 1
143 29 1
144 83 1
83 145 1
145 29 1
83 146 1
144 33 1
27 147 1
147 28 1
28 148 1
148 28 1
28 116 1
116 44 1
25 121 1
116 150 1
150 25 1
25 87 1
87 116 1
149 116 1
25 151 1
151 25 1
152 149 1
25 153 1
153 154 1
154 155 1
155 116 1
88 29 1
88 116 1
116 156 1
156 116 1
116 157 1
157 11 1
11 116 1
33 116 1
116 110 1
110 157 1
157 116 1
30 121 1
116 158 1
158 30 1
19 29 1
19 159 1
159 121 1
121 20 1
121 19 1
19 161 1
161 121 1
121 162 1
162 33 1
17 33 1
116 163 1
163 164 1
164 165 1
165 166 1
166 116 1
116 167 1
167 121 1
121 168 1
168 169 1
169 33 1
121 167 1
167 170 1
170 116 1
19 171 1
171 172 1
172 116 1
116 173 1
173 104 1
104 121 1
29 158 1
158 116 1
104 174 1
174 116 1
116 146 1
27 136 1
44 175 1
175 67 1
176 67 1
