13 12 39
12 13 35
2 12 22
12 2 21
11 10 18
1 2 17
2 1 15
10 11 14
15 13 12
12 14 10
13 15 9
10 2 8
14 2 8
2 3 7
1 3 7
14 12 7
2 13 7
4 2 6
3 1 6
2 11 6
1 13 5
13 2 5
2 4 4
3 2 4
12 3 4
13 1 4
15 12 4
12 15 4
2 14 4
2 8 3
2 10 3
12 1 3
3 13 3
3 14 3
14 13 3
13 3 3
3 4 2
2 5 2
5 2 2
8 3 2
11 2 2
1 12 2
13 14 2
3 12 2
13 16 2
4 5 1
5 4 1
4 1 1
1 4 1
3 6 1
6 2 1
2 7 1
7 8 1
8 9 1
9 2 1
8 2 1
8 6 1
6 1 1
1 8 1
8 1 1
3 8 1
3 10 1
11 7 1
7 11 1
14 1 1
2 15 1
16 15 1
16 1 1
1 15 1
13 17 1
17 18 1
18 12 1
