1 10 134
6 1 128
10 1 128
1 6 118
4 1 41
1 4 37
4 6 35
6 4 32
6 5 29
5 6 29
1 15 23
1 43 22
15 1 21
43 1 19
10 4 17
7 6 14
7 5 14
43 36 14
5 7 13
4 10 13
1 7 12
36 43 12
5 4 11
6 7 11
12 1 11
7 1 10
1 12 10
20 6 10
4 5 9
7 4 9
4 7 9
6 20 9
4 19 9
1 2 6
1 5 6
10 6 6
19 4 6
4 22 6
36 31 6
6 10 5
19 6 5
22 4 5
2 1 4
1 3 4
3 1 4
5 1 4
1 18 4
23 4 4
24 1 4
31 36 4
2 4 3
10 5 3
5 10 3
18 1 3
20 1 3
1 21 3
1 20 3
6 19 3
6 23 3
4 23 3
6 24 3
1 32 3
31 34 3
34 31 3
10 11 2
11 4 2
12 13 2
13 1 2
10 7 2
7 10 2
1 16 2
21 1 2
22 23 2
23 22 2
23 6 2
19 22 2
22 1 2
1 22 2
22 6 2
31 10 2
32 1 2
33 34 2
34 33 2
4 2 1
5 8 1
8 4 1
6 9 1
9 6 1
13 12 1
1 13 1
4 14 1
14 6 1
15 7 1
16 6 1
4 17 1
17 1 1
18 6 1
16 19 1
19 20 1
1 19 1
21 12 1
1 23 1
23 1 1
22 19 1
6 25 1
25 4 1
5 19 1
19 7 1
15 26 1
26 1 1
1 27 1
27 1 1
6 28 1
28 1 1
1 29 1
29 1 1
10 25 1
25 10 1
10 30 1
30 10 1
10 12 1
1 31 1
10 31 1
32 33 1
33 31 1
31 35 1
35 36 1
36 37 1
37 36 1
31 38 1
38 36 1
34 36 1
36 34 1
31 39 1
39 6 1
1 40 1
40 5 1
1 24 1
1 41 1
41 1 1
5 42 1
42 4 1
19 1 1
36 1 1
36 44 1
44 45 1
45 10 1
43 46 1
46 43 1
43 7 1
7 19 1
19 5 1
