42 41 13
28 41 13
41 28 12
41 42 10
28 42 8
42 28 8
42 43 6
42 85 6
42 47 5
41 47 5
47 42 5
28 43 5
47 41 4
48 28 4
85 42 4
43 42 3
43 48 3
42 66 3
28 52 3
57 42 3
12 2 2
2 13 2
42 57 2
32 42 2
42 58 2
58 42 2
55 38 2
41 52 2
52 28 2
43 64 2
64 41 2
66 42 2
43 28 2
68 71 2
66 48 2
41 57 2
52 64 2
52 41 2
42 32 2
32 55 2
52 84 2
84 42 2
41 92 2
104 105 2
1 2 1
2 3 1
3 4 1
4 5 1
5 6 1
6 7 1
7 8 1
8 9 1
9 2 1
2 10 1
10 2 1
2 11 1
11 12 1
13 2 1
13 14 1
14 12 1
2 15 1
15 16 1
16 17 1
17 18 1
18 19 1
19 20 1
20 21 1
21 19 1
19 22 1
22 23 1
23 24 1
24 25 1
25 26 1
26 27 1
27 28 1
28 29 1
29 30 1
30 14 1
14 31 1
31 32 1
32 33 1
33 34 1
34 35 1
35 36 1
36 37 1
37 38 1
38 39 1
39 34 1
34 37 1
37 40 1
40 41 1
43 44 1
44 45 1
45 46 1
46 42 1
42 48 1
48 41 1
42 49 1
49 42 1
47 48 1
48 50 1
50 51 1
51 47 1
47 43 1
43 52 1
52 47 1
47 53 1
53 54 1
54 55 1
55 56 1
56 43 1
57 32 1
42 59 1
59 60 1
60 61 1
61 55 1
38 62 1
62 28 1
48 42 1
43 63 1
63 48 1
41 64 1
64 65 1
65 42 1
41 43 1
28 67 1
67 68 1
68 69 1
69 68 1
68 70 1
70 71 1
71 68 1
71 72 1
72 71 1
71 73 1
73 68 1
71 74 1
74 75 1
75 76 1
76 77 1
77 78 1
78 69 1
69 79 1
79 42 1
41 66 1
48 80 1
80 41 1
28 66 1
57 81 1
81 61 1
61 42 1
64 55 1
55 82 1
82 41 1
66 61 1
61 65 1
65 28 1
64 42 1
55 83 1
83 52 1
85 48 1
48 85 1
85 52 1
85 86 1
86 42 1
41 87 1
87 73 1
73 87 1
87 88 1
88 89 1
89 73 1
73 90 1
90 42 1
42 73 1
73 66 1
66 32 1
32 91 1
91 38 1
38 58 1
58 52 1
92 93 1
93 94 1
94 95 1
95 96 1
96 38 1
38 97 1
97 98 1
98 99 1
99 73 1
73 52 1
52 58 1
58 43 1
28 100 1
100 101 1
101 102 1
102 103 1
103 104 1
105 106 1
106 107 1
107 108 1
108 109 1
109 110 1
110 111 1
111 112 1
112 113 1
113 114 1
114 115 1
115 116 1
116 73 1
73 117 1
117 42 1
43 72 1
72 118 1
118 119 1
119 52 1
52 120 1
120 42 1
42 72 1
72 32 1
55 121 1
121 42 1
42 52 1
52 122 1
122 123 1
123 58 1
58 73 1
73 72 1
72 81 1
81 100 1
100 91 1
91 73 1
73 124 1
124 93 1
93 55 1
38 125 1
125 126 1
126 57 1
42 88 1
88 52 1
52 73 1
73 42 1
42 127 1
127 52 1
52 100 1
100 80 1
80 128 1
128 104 1
105 129 1
129 130 1
130 28 1
28 72 1
72 42 1
42 93 1
93 28 1
28 124 1
124 131 1
131 132 1
132 133 1
133 134 1
134 135 1
135 136 1
136 137 1
137 138 1
138 139 1
139 119 1
119 140 1
140 141 1
141 65 1
65 82 1
82 142 1
142 57 1
57 93 1
93 143 1
143 144 1
144 121 1
121 145 1
145 146 1
146 28 1
92 147 1
147 148 1
148 132 1
132 48 1
48 141 1
141 149 1
149 150 1
150 65 1
65 102 1
102 82 1
82 62 1
62 151 1
151 152 1
152 36 1
36 153 1
153 154 1
154 155 1
155 156 1
156 157 1
157 158 1
158 28 1
41 159 1
159 160 1
160 161 1
161 51 1
51 41 1
41 162 1
162 32 1
32 163 1
163 42 1
43 164 1
164 140 1
140 41 1
41 140 1
140 165 1
165 57 1
57 166 1
166 81 1
81 167 1
167 168 1
168 42 1
42 169 1
