9 7 12
9 11 12
11 9 10
7 9 10
23 24 9
7 6 8
7 23 8
8 9 7
24 23 7
9 8 7
6 7 6
8 7 6
23 7 6
7 8 5
24 7 5
7 4 4
7 3 4
8 30 4
3 7 4
3 4 3
6 9 3
7 11 3
4 7 3
21 8 3
30 21 3
30 8 3
7 24 3
4 3 2
11 12 2
18 19 2
19 18 2
4 9 2
9 25 2
15 9 2
24 9 2
27 7 2
28 7 2
15 4 2
8 42 2
42 8 2
39 43 2
44 7 2
1 2 1
2 3 1
4 5 1
5 6 1
6 8 1
9 10 1
10 6 1
12 13 1
13 14 1
14 15 1
15 16 1
16 17 1
17 18 1
19 20 1
20 19 1
18 17 1
17 16 1
16 21 1
21 22 1
22 21 1
21 23 1
23 6 1
6 4 1
4 23 1
23 4 1
11 4 1
25 15 1
11 21 1
21 19 1
19 7 1
4 19 1
19 12 1
12 11 1
12 26 1
26 9 1
8 23 1
9 15 1
9 27 1
27 15 1
15 27 1
3 23 1
7 28 1
7 29 1
29 7 1
23 21 1
21 30 1
9 31 1
31 23 1
23 31 1
31 24 1
24 28 1
28 4 1
4 28 1
28 32 1
32 33 1
33 28 1
4 15 1
4 34 1
34 15 1
4 10 1
10 4 1
24 6 1
6 3 1
3 24 1
25 9 1
11 23 1
23 3 1
7 35 1
35 7 1
23 8 1
7 21 1
21 7 1
9 30 1
8 21 1
21 27 1
8 36 1
36 7 1
11 24 1
7 37 1
37 38 1
38 39 1
39 7 1
7 40 1
40 9 1
9 40 1
40 11 1
11 7 1
7 41 1
41 8 1
7 39 1
43 39 1
43 44 1
44 39 1
39 44 1
7 45 1
45 36 1
36 41 1
41 45 1
45 24 1
7 1 1
1 7 1
7 44 1
8 46 1
