9 3 65
3 9 60
3 13 36
13 3 35
3 5 31
5 3 29
3 14 23
14 3 19
3 15 19
15 3 17
13 9 16
9 13 14
3 4 13
4 3 13
14 13 12
13 14 8
13 15 7
15 13 6
5 21 6
14 9 5
3 10 4
10 3 4
15 14 4
15 9 4
9 15 4
21 5 4
9 14 3
22 5 3
5 22 3
7 8 2
3 12 2
14 15 2
5 20 2
20 5 2
21 22 2
1 2 1
2 3 1
3 1 1
1 3 1
5 6 1
6 7 1
7 3 1
3 7 1
8 7 1
8 3 1
9 11 1
11 9 1
12 3 1
12 2 1
2 9 1
9 10 1
10 9 1
15 16 1
16 14 1
14 17 1
17 3 1
15 6 1
6 3 1
3 18 1
18 15 1
13 19 1
19 3 1
13 6 1
6 9 1
15 5 1
21 9 1
9 21 1
21 15 1
9 5 1
22 21 1
22 15 1
13 23 1
23 5 1
15 18 1
18 13 1
5 24 1
24 25 1
25 3 1
3 26 1
26 3 1
3 27 1
27 3 1
5 28 1
28 29 1
