6 4 19
19 6 18
4 6 14
8 9 14
6 19 14
9 8 13
6 15 12
4 8 11
15 6 11
8 4 10
6 23 9
23 6 9
6 11 8
4 15 8
11 6 7
12 6 7
15 4 7
4 19 7
4 9 7
6 12 6
19 4 6
6 13 5
19 13 5
9 4 5
13 6 4
5 6 3
4 7 3
7 4 3
13 14 3
14 13 3
17 18 3
18 17 3
13 19 3
4 23 3
23 4 3
25 18 3
6 28 3
28 6 3
29 6 3
6 29 3
2 3 2
3 2 2
4 5 2
9 6 2
6 10 2
10 6 2
15 16 2
9 19 2
24 25 2
18 25 2
25 11 2
29 19 2
1 2 1
2 4 1
6 5 1
7 6 1
6 7 1
11 12 1
16 15 1
16 6 1
15 17 1
17 19 1
13 20 1
20 13 1
13 4 1
4 21 1
21 4 1
4 22 1
22 4 1
6 24 1
24 12 1
12 24 1
11 24 1
11 25 1
18 9 1
23 19 1
13 23 1
6 26 1
26 6 1
23 27 1
27 26 1
26 23 1
13 29 1
19 29 1
