26 8 24
8 11 23
8 26 22
11 8 20
8 9 16
7 8 15
9 8 14
8 3 13
8 10 12
3 8 12
8 7 11
10 8 11
25 8 7
8 25 7
8 18 6
18 8 6
11 7 4
3 20 4
20 3 4
27 8 4
37 8 4
8 37 4
3 4 3
7 11 3
8 27 3
11 30 3
30 11 3
10 32 3
32 8 3
4 3 2
5 6 2
9 10 2
10 11 2
11 12 2
9 13 2
13 8 2
11 10 2
10 7 2
16 17 2
17 8 2
8 16 2
16 8 2
7 18 2
11 21 2
11 22 2
8 28 2
29 11 2
8 32 2
32 10 2
8 33 2
33 8 2
25 7 2
13 9 2
1 2 1
2 3 1
4 5 1
6 5 1
6 7 1
8 6 1
6 9 1
9 6 1
6 8 1
12 11 1
12 9 1
8 13 1
7 9 1
8 14 1
14 15 1
15 16 1
17 16 1
18 7 1
18 1 1
1 3 1
3 19 1
19 3 1
3 11 1
21 11 1
22 11 1
22 23 1
23 24 1
24 11 1
11 25 1
11 26 1
10 9 1
9 27 1
8 17 1
28 8 1
28 11 1
21 29 1
11 29 1
11 31 1
31 10 1
9 34 1
34 35 1
35 36 1
36 25 1
7 25 1
25 37 1
37 25 1
25 13 1
9 38 1
38 39 1
39 8 1
8 39 1
39 26 1
26 7 1
8 40 1
40 26 1
26 41 1
41 42 1
42 43 1
43 26 1
26 44 1
44 42 1
42 44 1
44 26 1
