5 17 110
17 5 109
7 17 98
17 7 97
5 7 64
10 5 61
5 10 60
7 5 59
5 3 34
3 5 32
17 10 31
10 17 30
12 7 28
1 5 27
7 12 27
5 1 26
8 17 23
17 23 21
23 17 21
8 10 20
8 5 19
17 8 19
5 8 18
10 8 17
12 5 14
3 8 13
5 12 13
3 10 10
10 7 10
20 5 10
7 10 9
5 20 9
7 3 8
8 3 8
13 5 8
10 20 8
5 13 7
10 3 7
3 7 6
7 8 6
20 10 6
8 9 5
9 8 5
18 17 5
17 18 5
11 5 4
5 16 4
16 5 4
23 22 4
5 6 3
6 5 3
5 11 3
22 7 3
22 23 3
25 17 3
3 4 2
4 3 2
10 1 2
1 3 2
3 12 2
8 7 2
19 5 2
7 22 2
17 3 2
20 8 2
17 24 2
17 25 2
27 17 2
1 2 1
2 3 1
6 3 1
8 1 1
1 7 1
10 11 1
12 10 1
10 13 1
13 12 1
7 14 1
14 15 1
15 3 1
3 16 1
16 3 1
3 1 1
8 16 1
16 12 1
12 3 1
17 16 1
16 18 1
17 19 1
5 19 1
10 21 1
21 10 1
17 22 1
22 17 1
3 17 1
18 7 1
8 20 1
17 13 1
17 20 1
24 17 1
24 23 1
7 25 1
17 6 1
5 26 1
26 5 1
20 17 1
7 27 1
17 27 1
17 12 1
