4 3 108
3 4 103
3 13 91
13 3 88
5 3 30
3 5 29
51 3 10
3 51 10
3 26 7
3 28 7
26 3 6
28 3 6
22 4 6
33 3 6
3 29 5
29 22 4
31 3 4
3 34 4
3 33 4
4 22 4
10 3 3
19 20 3
20 19 3
4 25 3
38 3 3
3 49 3
25 4 3
8 9 2
12 3 2
13 14 2
14 13 2
21 22 2
25 3 2
3 31 2
34 3 2
34 13 2
41 3 2
3 48 2
3 25 2
22 29 2
29 3 2
4 31 2
1 2 1
2 3 1
5 4 1
3 6 1
6 7 1
7 8 1
9 5 1
5 10 1
10 11 1
11 6 1
6 12 1
3 12 1
3 8 1
9 3 1
3 11 1
11 5 1
5 15 1
15 5 1
3 16 1
16 3 1
3 17 1
17 18 1
18 10 1
3 19 1
19 3 1
3 21 1
22 21 1
21 23 1
23 13 1
13 24 1
24 13 1
13 4 1
3 20 1
20 3 1
13 25 1
25 13 1
13 22 1
22 3 1
3 10 1
10 4 1
3 27 1
27 3 1
28 4 1
26 4 1
3 30 1
30 3 1
3 32 1
32 3 1
26 33 1
34 33 1
3 35 1
35 4 1
4 36 1
36 37 1
37 36 1
36 3 1
3 38 1
13 38 1
13 39 1
39 13 1
3 40 1
40 3 1
3 41 1
13 41 1
3 42 1
42 26 1
26 13 1
13 43 1
43 13 1
13 5 1
13 44 1
44 26 1
26 45 1
45 3 1
13 34 1
3 46 1
46 22 1
22 47 1
47 21 1
22 10 1
48 3 1
49 3 1
49 25 1
4 50 1
50 4 1
49 4 1
25 37 1
37 3 1
4 10 1
10 51 1
51 10 1
48 25 1
25 51 1
51 26 1
29 4 1
4 38 1
4 52 1
52 4 1
