4 3 108
3 4 103
3 13 96
13 3 93
5 3 31
3 5 30
44 3 10
3 44 10
3 23 7
3 26 7
23 3 6
26 3 6
20 4 6
30 3 6
3 27 5
29 3 5
27 20 4
3 31 4
3 30 4
4 20 4
10 3 3
17 18 3
18 17 3
4 22 3
3 29 3
35 3 3
3 42 3
22 4 3
8 9 2
12 3 2
19 20 2
22 3 2
31 3 2
31 13 2
36 3 2
3 41 2
3 22 2
20 27 2
27 3 2
4 29 2
1 2 1
2 3 1
5 4 1
3 6 1
6 7 1
7 8 1
9 5 1
5 10 1
10 11 1
11 6 1
6 12 1
3 12 1
3 8 1
9 3 1
3 11 1
11 5 1
3 14 1
14 3 1
3 15 1
15 16 1
16 10 1
3 17 1
17 3 1
3 19 1
20 19 1
19 13 1
13 21 1
21 13 1
13 4 1
3 18 1
18 3 1
13 22 1
22 13 1
13 20 1
20 3 1
3 10 1
10 24 1
24 4 1
3 25 1
25 3 1
26 4 1
23 4 1
3 28 1
28 3 1
23 30 1
31 30 1
3 32 1
32 4 1
4 33 1
33 34 1
34 33 1
33 3 1
3 35 1
13 35 1
3 36 1
13 36 1
3 37 1
37 23 1
23 13 1
13 5 1
13 38 1
38 23 1
23 39 1
39 3 1
13 31 1
3 20 1
20 40 1
40 19 1
20 10 1
41 3 1
42 3 1
42 22 1
4 43 1
43 4 1
42 4 1
22 34 1
34 3 1
4 10 1
10 44 1
44 10 1
41 22 1
22 44 1
44 23 1
27 4 1
4 35 1
4 45 1
45 4 1
