29 33 46
33 29 44
33 16 28
16 33 24
35 33 23
33 35 19
13 10 17
33 25 17
10 13 14
29 10 14
25 33 14
10 29 13
29 6 13
6 29 13
6 12 8
13 6 8
6 9 7
10 8 7
6 10 7
58 33 7
8 10 6
10 6 6
6 13 6
33 13 6
33 58 6
12 6 5
20 13 5
9 6 5
13 33 5
25 35 5
8 6 4
13 20 4
21 13 4
25 6 4
6 25 4
31 33 4
25 29 4
29 25 4
33 10 4
16 25 4
6 8 3
16 6 3
13 21 3
25 16 3
16 13 3
29 13 3
13 29 3
13 34 3
35 29 3
10 16 3
33 31 3
10 33 3
16 58 3
1 2 2
2 1 2
7 8 2
8 7 2
24 25 2
29 31 2
31 29 2
34 13 2
29 35 2
33 44 2
16 10 2
10 23 2
13 49 2
33 59 2
59 33 2
16 59 2
58 16 2
1 3 1
3 4 1
4 3 1
3 1 1
1 5 1
5 4 1
4 1 1
1 6 1
6 1 1
1 7 1
7 6 1
9 8 1
10 11 1
11 8 1
12 10 1
10 12 1
12 14 1
14 10 1
13 8 1
10 15 1
15 16 1
12 16 1
12 17 1
17 16 1
16 18 1
18 19 1
19 20 1
8 13 1
9 21 1
10 22 1
22 10 1
8 23 1
23 24 1
25 24 1
25 26 1
26 25 1
16 8 1
8 16 1
13 7 1
7 13 1
10 27 1
27 28 1
28 10 1
29 30 1
30 29 1
6 16 1
13 27 1
27 6 1
6 32 1
32 29 1
8 29 1
33 34 1
34 31 1
34 29 1
35 36 1
36 33 1
33 37 1
37 33 1
29 38 1
38 35 1
25 39 1
39 40 1
40 35 1
35 38 1
38 25 1
13 25 1
25 13 1
29 41 1
41 42 1
42 43 1
43 33 1
16 29 1
44 33 1
44 13 1
29 45 1
45 25 1
25 31 1
31 46 1
46 29 1
33 47 1
47 13 1
13 23 1
23 10 1
29 8 1
8 33 1
23 13 1
23 29 1
10 48 1
48 13 1
49 33 1
49 10 1
10 50 1
50 51 1
51 52 1
52 29 1
25 53 1
53 54 1
54 55 1
55 54 1
54 35 1
29 16 1
10 56 1
56 57 1
57 8 1
8 25 1
59 25 1
35 58 1
59 58 1
58 25 1
25 59 1
59 16 1
35 16 1
25 58 1
58 35 1
58 51 1
51 10 1
10 60 1
60 48 1
48 33 1
