4 13 35
13 4 34
4 16 23
16 4 22
4 14 17
20 16 17
16 20 16
14 4 15
4 9 8
7 4 7
9 4 7
14 13 7
3 4 6
13 14 6
4 20 6
16 7 6
20 4 5
4 3 4
7 16 4
4 26 4
26 4 4
3 7 3
10 4 3
4 10 3
20 14 3
14 20 3
36 37 3
37 36 3
4 5 2
7 3 2
4 8 2
26 13 2
13 26 2
4 27 2
35 36 2
36 38 2
38 37 2
36 16 2
16 36 2
1 2 1
2 3 1
5 3 1
4 6 1
6 4 1
5 4 1
4 7 1
8 4 1
8 7 1
9 10 1
10 11 1
11 4 1
9 12 1
12 9 1
4 15 1
15 16 1
4 17 1
17 4 1
4 18 1
18 4 1
4 19 1
19 4 1
13 21 1
21 14 1
13 22 1
22 23 1
23 7 1
7 24 1
24 7 1
7 25 1
25 20 1
16 13 1
13 19 1
19 16 1
26 3 1
3 26 1
26 15 1
15 7 1
14 7 1
27 4 1
27 3 1
3 16 1
16 27 1
27 28 1
28 29 1
29 4 1
14 16 1
20 30 1
30 14 1
4 31 1
31 16 1
16 31 1
31 4 1
4 32 1
32 16 1
16 32 1
32 4 1
16 26 1
14 26 1
26 16 1
16 3 1
20 33 1
33 20 1
16 34 1
34 35 1
37 34 1
34 36 1
37 35 1
36 34 1
34 37 1
37 39 1
39 16 1
16 40 1
40 41 1
41 42 1
42 43 1
43 44 1
44 45 1
45 46 1
46 47 1
