3 2 85
2 3 81
19 2 57
2 19 53
14 2 29
2 14 27
5 3 21
17 2 16
3 6 15
2 17 15
6 3 14
3 5 14
20 2 14
2 20 14
4 5 13
2 12 13
12 2 12
2 5 11
8 2 11
2 8 10
5 2 9
2 4 8
5 4 8
2 22 8
6 2 7
22 2 7
4 3 6
3 7 6
2 6 6
3 4 6
10 2 6
2 13 6
13 2 6
14 13 6
13 14 6
19 14 6
2 24 6
24 2 6
7 3 5
6 7 5
7 6 5
8 6 5
2 10 5
12 13 5
13 12 5
6 8 4
14 17 4
18 17 4
31 19 4
33 19 4
17 18 3
17 19 3
14 19 3
2 31 3
4 2 2
9 2 2
2 9 2
12 14 2
17 14 2
19 12 2
12 19 2
2 23 2
23 2 2
22 23 2
4 25 2
26 2 2
19 28 2
28 19 2
19 31 2
32 31 2
31 33 2
19 32 2
1 2 1
2 7 1
6 5 1
3 8 1
7 8 1
7 2 1
3 9 1
9 10 1
2 11 1
11 2 1
14 12 1
12 15 1
15 12 1
5 16 1
16 5 1
19 17 1
5 20 1
20 3 1
5 19 1
14 15 1
15 14 1
2 21 1
21 2 1
19 22 1
23 22 1
23 24 1
22 3 1
25 4 1
25 26 1
2 26 1
2 18 1
17 5 1
3 27 1
27 5 1
2 27 1
27 4 1
5 17 1
24 19 1
19 29 1
29 2 1
2 30 1
30 19 1
31 2 1
2 32 1
33 32 1
32 33 1
19 33 1
32 19 1
2 33 1
4 34 1
34 35 1
35 36 1
36 34 1
34 2 1
