3 2 78
2 3 77
23 2 55
2 23 49
2 17 26
17 2 26
6 3 20
4 2 19
2 4 16
21 2 15
7 3 14
24 2 14
3 7 13
2 14 13
2 21 13
2 24 13
3 4 11
5 6 11
3 6 11
14 2 11
10 2 10
2 6 9
4 23 9
2 10 9
2 5 8
2 26 8
4 6 7
6 5 7
5 3 6
6 2 6
3 8 6
4 3 6
2 7 6
3 5 6
2 12 6
12 2 6
15 2 6
17 4 6
15 17 6
23 17 6
7 2 5
7 8 5
8 7 5
2 15 5
17 15 5
26 2 5
8 3 4
6 4 4
7 10 4
10 7 4
4 15 4
15 14 4
22 21 4
4 7 3
10 4 3
14 15 3
14 4 3
17 21 3
21 4 3
4 21 3
21 23 3
23 4 3
4 5 3
27 2 3
35 23 3
2 35 3
5 2 2
5 4 2
11 2 2
14 17 2
21 22 2
21 17 2
17 23 2
2 9 2
23 14 2
14 23 2
26 4 2
2 27 2
26 27 2
4 10 2
5 29 2
30 2 2
9 21 2
6 9 2
9 2 2
23 32 2
32 23 2
23 35 2
36 35 2
35 37 2
37 4 2
37 23 2
23 36 2
1 2 1
8 4 1
4 8 1
7 6 1
3 9 1
9 10 1
8 10 1
7 4 1
8 2 1
3 11 1
2 11 1
2 13 1
13 2 1
15 16 1
16 14 1
17 14 1
14 18 1
18 14 1
4 17 1
6 19 1
19 6 1
17 20 1
20 17 1
4 22 1
23 21 1
6 24 1
24 3 1
7 16 1
16 2 1
6 23 1
17 18 1
18 17 1
2 25 1
25 2 1
9 23 1
23 26 1
27 26 1
26 3 1
3 28 1
28 2 1
29 4 1
29 30 1
2 30 1
2 22 1
21 9 1
9 6 1
3 31 1
31 6 1
2 31 1
31 4 1
23 33 1
33 2 1
2 34 1
34 23 1
35 2 1
35 4 1
2 36 1
37 36 1
36 37 1
23 37 1
36 23 1
2 37 1
5 38 1
38 39 1
39 40 1
40 38 1
38 9 1
4 24 1
