10 9 9
16 7 9
4 5 7
9 10 7
7 16 7
9 7 5
5 4 5
9 6 5
4 7 4
7 8 4
7 9 4
6 9 4
21 8 4
7 3 3
3 6 3
3 8 3
6 8 3
8 3 3
8 7 3
13 17 3
9 18 3
18 9 3
6 20 3
12 10 3
8 21 3
2 3 2
6 7 2
8 6 2
8 4 2
5 8 2
7 4 2
11 3 2
17 13 2
20 6 2
13 9 2
10 12 2
1 2 1
3 4 1
5 6 1
6 4 1
7 5 1
5 3 1
8 9 1
7 10 1
9 2 1
2 11 1
11 8 1
8 11 1
11 6 1
6 11 1
3 11 1
3 12 1
12 6 1
6 12 1
12 13 1
13 5 1
8 13 1
13 14 1
14 15 1
15 10 1
9 4 1
5 7 1
3 13 1
17 4 1
4 10 1
9 5 1
5 9 1
10 2 1
3 10 1
10 19 1
19 2 1
2 9 1
9 13 1
9 17 1
20 5 1
4 21 1
8 16 1
7 22 1
22 23 1
23 13 1
17 23 1
23 12 1
10 23 1
23 16 1
7 23 1
23 5 1
