5 6 74
6 5 70
11 6 39
6 11 37
11 5 22
9 11 22
5 8 20
8 11 20
8 5 18
11 8 18
5 11 18
9 5 16
5 9 16
11 9 16
6 9 13
6 41 13
41 6 10
5 28 10
28 5 9
8 9 8
9 8 8
8 6 7
9 6 7
38 9 7
6 7 6
6 8 6
21 6 6
7 6 5
5 21 5
42 5 5
21 5 5
20 37 5
37 20 5
9 38 5
44 6 5
19 20 4
19 6 4
11 27 4
27 6 4
6 20 4
37 5 4
5 42 4
6 21 4
8 49 4
27 21 4
21 27 4
5 55 4
11 19 3
21 19 3
25 6 3
6 27 3
20 11 3
20 5 3
5 37 3
6 38 3
48 8 3
54 6 3
21 55 3
55 5 3
6 37 3
64 6 3
6 64 3
4 5 2
19 11 2
20 21 2
19 8 2
22 5 2
6 19 2
8 28 2
19 21 2
6 35 2
20 19 2
28 19 2
5 20 2
28 21 2
21 28 2
44 45 2
45 44 2
44 46 2
8 48 2
20 50 2
37 6 2
5 52 2
6 54 2
55 21 2
49 8 2
38 5 2
5 38 2
41 57 2
57 44 2
6 44 2
63 64 2
5 63 2
1 2 1
2 3 1
3 2 1
2 4 1
7 8 1
9 10 1
10 11 1
11 10 1
10 8 1
6 12 1
12 8 1
8 12 1
12 9 1
6 13 1
13 6 1
6 14 1
14 5 1
6 15 1
15 11 1
11 15 1
15 6 1
8 16 1
16 9 1
9 17 1
17 8 1
11 18 1
18 19 1
8 19 1
5 22 1
22 9 1
11 22 1
11 23 1
23 8 1
5 24 1
24 8 1
11 25 1
6 26 1
26 11 1
27 11 1
27 9 1
9 27 1
27 8 1
28 29 1
29 28 1
28 30 1
30 28 1
28 9 1
11 31 1
31 32 1
32 9 1
28 11 1
6 33 1
33 6 1
9 34 1
34 5 1
11 20 1
9 19 1
5 19 1
20 6 1
35 6 1
35 36 1
36 5 1
5 36 1
36 11 1
38 39 1
39 8 1
8 39 1
39 5 1
5 40 1
40 6 1
41 22 1
22 8 1
9 20 1
19 28 1
20 28 1
19 5 1
5 4 1
5 25 1
6 25 1
5 43 1
43 28 1
28 43 1
43 27 1
27 44 1
46 44 1
46 45 1
45 46 1
46 6 1
6 47 1
47 21 1
8 31 1
31 11 1
11 48 1
48 11 1
8 38 1
38 48 1
49 11 1
8 20 1
50 51 1
51 20 1
50 37 1
37 21 1
21 37 1
27 48 1
48 5 1
52 5 1
52 9 1
9 53 1
53 38 1
9 54 1
9 21 1
55 22 1
55 56 1
56 5 1
49 6 1
5 57 1
57 38 1
37 11 1
38 11 1
11 38 1
38 37 1
27 37 1
37 27 1
44 28 1
28 44 1
44 41 1
41 42 1
5 58 1
58 59 1
59 6 1
41 44 1
11 41 1
37 41 1
41 60 1
60 44 1
38 30 1
30 61 1
61 22 1
22 28 1
28 6 1
6 28 1
28 62 1
62 63 1
64 5 1
63 5 1
64 65 1
65 5 1
28 37 1
37 66 1
66 37 1
37 67 1
67 68 1
