20 21 5
21 20 4
21 17 3
59 60 3
10 11 2
17 21 2
17 52 2
60 59 2
68 69 2
1 2 1
2 3 1
3 4 1
4 5 1
5 6 1
6 2 1
2 7 1
7 8 1
8 9 1
9 10 1
11 10 1
11 12 1
12 2 1
2 13 1
13 14 1
14 2 1
2 15 1
15 2 1
2 16 1
16 17 1
17 18 1
18 19 1
19 20 1
21 22 1
22 20 1
20 23 1
23 20 1
20 24 1
24 25 1
25 26 1
26 27 1
27 21 1
21 24 1
24 28 1
28 29 1
29 30 1
30 31 1
31 32 1
32 33 1
33 34 1
34 35 1
35 36 1
36 37 1
37 38 1
38 39 1
39 40 1
40 41 1
41 42 1
42 43 1
43 21 1
21 44 1
44 45 1
45 2 1
2 46 1
46 47 1
47 17 1
17 48 1
48 49 1
49 50 1
50 51 1
51 21 1
52 17 1
17 53 1
53 17 1
52 54 1
54 52 1
52 55 1
55 56 1
56 57 1
57 58 1
58 59 1
60 61 1
61 59 1
59 62 1
62 63 1
63 2 1
2 64 1
64 65 1
65 66 1
66 2 1
2 67 1
67 2 1
2 68 1
69 68 1
68 21 1
21 68 1
69 70 1
