19 8 31
8 19 29
8 20 29
18 8 25
8 28 25
8 18 25
20 8 23
22 8 22
27 8 21
8 22 19
28 8 19
8 27 19
10 8 17
8 10 16
8 65 16
66 8 16
65 8 14
8 66 14
28 22 13
8 74 12
8 12 11
22 28 11
11 8 10
74 8 10
33 8 9
8 11 8
19 20 8
12 8 7
20 19 7
8 46 7
28 34 6
46 8 6
76 8 6
19 21 5
22 19 5
21 19 5
34 28 5
21 8 5
20 22 5
46 21 5
21 46 5
8 76 5
19 22 4
24 8 4
20 21 4
45 8 4
8 45 4
18 20 4
12 14 3
14 8 3
8 24 3
28 44 3
44 28 3
46 19 3
36 60 3
61 22 3
20 33 3
63 20 3
8 33 3
8 73 3
14 12 2
8 14 2
12 11 2
21 22 2
22 21 2
19 24 2
21 20 2
28 33 2
28 35 2
8 21 2
8 49 2
49 8 2
20 55 2
55 20 2
8 36 2
59 36 2
19 61 2
20 61 2
20 63 2
64 19 2
65 20 2
65 19 2
65 66 2
66 65 2
68 19 2
19 33 2
73 8 2
18 25 2
20 18 2
1 2 1
2 3 1
3 4 1
4 3 1
3 5 1
5 3 1
3 6 1
6 7 1
7 8 1
8 9 1
9 10 1
12 13 1
13 14 1
14 11 1
11 12 1
12 15 1
15 16 1
16 17 1
17 14 1
14 18 1
21 23 1
23 8 1
24 25 1
25 24 1
24 19 1
19 26 1
26 20 1
21 27 1
28 29 1
29 28 1
28 30 1
30 28 1
28 31 1
31 28 1
28 32 1
32 28 1
33 28 1
28 13 1
13 28 1
34 22 1
22 34 1
34 8 1
19 28 1
35 28 1
35 8 1
28 36 1
36 28 1
28 37 1
37 38 1
38 39 1
39 40 1
40 28 1
28 41 1
41 42 1
42 41 1
41 43 1
43 39 1
39 28 1
28 45 1
45 28 1
33 29 1
29 33 1
33 46 1
28 46 1
46 28 1
28 19 1
19 39 1
39 8 1
22 47 1
47 28 1
28 48 1
48 8 1
28 21 1
21 50 1
50 20 1
8 44 1
44 51 1
51 44 1
44 20 1
20 52 1
52 33 1
8 15 1
15 27 1
8 53 1
53 8 1
27 54 1
54 41 1
41 54 1
54 27 1
27 23 1
23 27 1
8 25 1
25 21 1
22 56 1
56 21 1
8 57 1
57 8 1
46 45 1
45 46 1
19 15 1
15 46 1
46 15 1
15 22 1
22 15 1
15 8 1
36 8 1
36 58 1
58 36 1
36 59 1
60 59 1
60 36 1
60 20 1
20 46 1
22 33 1
8 51 1
51 20 1
61 19 1
20 62 1
62 21 1
8 63 1
20 64 1
20 65 1
65 22 1
22 64 1
64 65 1
19 64 1
22 65 1
8 64 1
64 66 1
8 67 1
67 66 1
66 38 1
38 66 1
22 68 1
33 19 1
8 61 1
61 8 1
8 68 1
8 69 1
69 8 1
33 70 1
70 33 1
33 71 1
71 33 1
33 72 1
72 8 1
73 20 1
74 20 1
20 74 1
8 75 1
75 8 1
76 77 1
77 78 1
78 8 1
74 76 1
76 33 1
25 79 1
79 18 1
74 18 1
20 57 1
57 18 1
8 80 1
80 8 1
25 18 1
22 81 1
81 82 1
82 46 1
46 83 1
83 18 1
18 33 1
18 84 1
84 8 1
33 18 1
18 85 1
85 76 1
8 86 1
86 18 1
18 76 1
8 50 1
50 8 1
