8 67 33
67 8 32
43 8 32
23 8 31
8 43 31
8 23 29
20 8 27
8 20 26
8 9 23
9 8 22
17 20 22
20 17 20
36 8 19
8 36 19
23 20 19
20 23 19
20 52 19
52 20 18
8 46 15
46 8 15
8 100 15
100 8 15
23 52 15
89 8 13
8 89 13
52 23 13
41 8 11
17 8 10
8 17 8
8 41 8
8 52 8
14 16 7
52 8 7
8 13 6
20 41 6
41 20 6
103 23 6
16 14 5
17 18 5
9 17 4
8 18 4
20 9 4
8 22 4
22 8 4
41 9 4
18 17 4
23 103 4
11 12 3
14 9 3
8 14 3
13 20 3
17 9 3
8 33 3
23 17 3
23 48 3
48 23 3
51 8 3
8 55 3
22 17 3
9 41 3
20 89 3
89 90 3
90 89 3
8 98 3
55 8 3
8 11 2
12 8 2
15 14 2
9 21 2
20 22 2
22 20 2
15 16 2
16 15 2
21 22 2
31 8 2
33 8 2
18 20 2
36 20 2
8 51 2
17 23 2
9 20 2
9 18 2
8 69 2
69 8 2
17 22 2
75 22 2
8 78 2
20 81 2
20 43 2
43 20 2
43 87 2
89 20 2
43 18 2
96 43 2
18 8 2
98 8 2
52 43 2
18 23 2
8 108 2
1 2 1
2 3 1
3 4 1
4 5 1
5 6 1
6 7 1
7 8 1
8 10 1
10 8 1
13 14 1
14 15 1
13 9 1
18 19 1
19 9 1
21 8 1
8 21 1
21 20 1
20 15 1
9 23 1
14 17 1
22 21 1
22 14 1
16 24 1
24 8 1
16 8 1
8 16 1
16 20 1
9 25 1
25 26 1
26 27 1
27 28 1
28 29 1
29 28 1
28 30 1
30 31 1
8 32 1
32 8 1
33 34 1
34 35 1
35 36 1
36 37 1
37 38 1
38 8 1
8 39 1
39 23 1
20 18 1
20 40 1
40 41 1
41 42 1
42 41 1
43 41 1
8 44 1
44 45 1
45 8 1
46 36 1
20 46 1
46 47 1
47 23 1
48 8 1
8 49 1
49 50 1
50 49 1
49 51 1
52 53 1
53 8 1
9 54 1
54 8 1
55 41 1
41 11 1
12 41 1
9 13 1
23 56 1
56 8 1
8 56 1
56 23 1
8 57 1
57 17 1
23 58 1
58 20 1
20 59 1
59 20 1
18 60 1
60 61 1
61 20 1
20 62 1
62 63 1
63 64 1
64 65 1
65 66 1
66 8 1
67 68 1
68 9 1
18 9 1
13 33 1
33 36 1
18 70 1
70 71 1
71 72 1
72 18 1
18 22 1
22 18 1
17 73 1
73 18 1
18 74 1
74 18 1
18 75 1
22 75 1
18 76 1
76 77 1
77 78 1
78 20 1
20 79 1
79 8 1
78 79 1
79 62 1
62 79 1
79 80 1
80 8 1
17 41 1
81 20 1
81 8 1
8 82 1
82 81 1
81 18 1
20 83 1
83 8 1
8 84 1
84 85 1
85 43 1
43 86 1
86 43 1
87 43 1
87 84 1
84 8 1
8 87 1
87 88 1
88 43 1
9 36 1
22 89 1
89 91 1
91 92 1
92 8 1
89 43 1
43 93 1
93 8 1
8 94 1
94 43 1
43 95 1
95 43 1
18 94 1
94 96 1
43 96 1
78 97 1
97 8 1
20 98 1
98 99 1
99 8 1
98 43 1
100 43 1
8 31 1
43 100 1
43 101 1
101 102 1
102 17 1
43 48 1
43 52 1
52 22 1
13 41 1
41 46 1
36 23 1
52 103 1
52 46 1
46 104 1
104 105 1
105 38 1
38 17 1
18 106 1
106 103 1
23 18 1
9 52 1
8 107 1
107 8 1
108 43 1
8 109 1
109 8 1
108 8 1
43 110 1
110 43 1
8 5 1
5 111 1
111 41 1
41 43 1
43 23 1
23 55 1
