21 22 38
22 21 38
23 22 37
22 23 34
22 67 18
67 22 16
21 23 10
21 53 10
22 34 9
34 22 9
23 21 9
53 21 9
48 21 8
21 48 8
3 22 8
22 3 7
13 12 5
20 21 5
22 26 5
26 23 5
33 21 5
35 22 5
49 22 5
12 13 4
22 20 4
22 35 4
45 21 4
22 49 4
23 26 4
3 4 3
4 3 3
26 22 3
20 22 3
21 33 3
23 38 3
21 20 3
8 9 2
22 25 2
28 29 2
29 28 2
22 30 2
22 33 2
37 22 2
38 23 2
41 42 2
21 45 2
57 22 2
22 63 2
67 53 2
1 2 1
2 3 1
3 5 1
5 4 1
4 5 1
5 6 1
6 7 1
7 8 1
9 8 1
9 10 1
10 11 1
11 12 1
12 14 1
14 11 1
11 15 1
15 16 1
16 17 1
17 18 1
18 12 1
12 19 1
19 20 1
20 12 1
12 20 1
22 24 1
24 23 1
25 22 1
25 21 1
21 27 1
27 22 1
22 28 1
28 22 1
30 13 1
12 31 1
31 32 1
32 12 1
12 21 1
30 22 1
22 6 1
6 35 1
23 36 1
36 37 1
22 37 1
23 39 1
39 20 1
20 8 1
8 40 1
40 38 1
38 41 1
42 43 1
43 44 1
44 45 1
21 34 1
34 43 1
43 21 1
21 41 1
42 45 1
45 43 1
43 45 1
21 46 1
46 47 1
47 48 1
48 22 1
22 48 1
48 49 1
49 50 1
50 49 1
20 51 1
51 20 1
21 52 1
52 22 1
21 54 1
54 55 1
55 56 1
56 57 1
22 57 1
22 58 1
58 59 1
59 22 1
26 60 1
60 61 1
61 62 1
62 22 1
38 52 1
52 38 1
38 22 1
63 22 1
63 64 1
64 65 1
65 20 1
20 55 1
55 66 1
66 28 1
28 21 1
53 48 1
48 38 1
38 3 1
3 23 1
23 3 1
53 33 1
33 23 1
67 68 1
68 23 1
22 69 1
69 23 1
53 22 1
23 67 1
22 70 1
70 67 1
67 23 1
21 71 1
71 22 1
21 2 1
2 67 1
67 72 1
