7 10 113
10 7 111
15 14 18
14 10 18
14 15 14
10 14 14
7 6 9
6 7 9
14 6 7
6 14 7
10 3 6
14 27 5
27 14 5
16 14 4
2 7 3
14 16 3
30 7 3
14 7 2
10 15 2
2 10 2
10 2 2
7 3 2
3 14 2
3 7 2
3 10 2
7 30 2
1 2 1
2 3 1
3 4 1
4 5 1
5 6 1
6 2 1
7 8 1
8 9 1
9 10 1
10 11 1
11 7 1
10 6 1
6 12 1
12 6 1
6 13 1
13 14 1
7 16 1
14 17 1
17 2 1
10 18 1
18 10 1
3 15 1
15 3 1
3 19 1
19 10 1
10 20 1
20 14 1
14 21 1
21 15 1
14 22 1
22 10 1
10 23 1
23 10 1
7 2 1
7 24 1
24 10 1
10 25 1
25 7 1
7 15 1
14 26 1
26 14 1
7 28 1
28 3 1
3 29 1
29 7 1
3 31 1
31 30 1
7 32 1
32 7 1
