8 3 135
3 8 130
10 8 24
11 10 19
8 10 18
10 11 17
3 7 11
7 3 11
7 10 9
10 7 8
10 33 6
33 10 6
1 8 4
12 10 4
3 1 3
10 12 3
36 3 3
1 3 2
8 1 2
8 15 2
15 10 2
18 8 2
3 36 2
1 2 1
2 3 1
3 4 1
4 5 1
5 6 1
6 7 1
7 1 1
8 7 1
7 9 1
9 7 1
8 12 1
8 13 1
13 11 1
8 14 1
14 10 1
3 16 1
16 17 1
17 8 1
3 18 1
18 1 1
1 4 1
4 18 1
18 19 1
19 8 1
10 20 1
20 1 1
1 21 1
21 22 1
22 10 1
10 23 1
23 8 1
8 24 1
24 3 1
3 11 1
3 25 1
25 18 1
8 26 1
26 8 1
10 27 1
27 28 1
28 3 1
3 29 1
29 30 1
30 8 1
8 31 1
31 1 1
1 10 1
10 32 1
32 10 1
8 18 1
10 3 1
3 10 1
3 34 1
34 3 1
3 35 1
35 3 1
3 37 1
37 36 1
3 38 1
38 3 1
