31 6 30
6 31 28
6 37 27
37 6 24
27 24 22
6 38 21
38 6 21
24 27 19
27 6 19
6 27 19
24 6 18
52 13 18
11 13 16
6 24 15
13 52 15
29 32 14
24 7 14
13 11 13
34 50 13
31 32 12
32 29 12
32 31 12
50 34 12
7 24 12
7 6 11
15 13 11
13 15 11
13 34 10
6 58 10
5 6 9
6 7 8
40 13 8
58 6 8
6 5 7
25 24 7
24 25 7
13 40 7
55 13 7
13 55 7
58 7 7
27 37 7
37 27 7
6 25 6
25 6 6
15 11 5
34 13 5
7 58 5
11 15 4
6 49 4
49 27 4
32 6 4
15 55 4
6 32 4
13 17 3
6 29 3
29 6 3
33 6 3
37 31 3
31 37 3
47 6 3
6 47 3
49 6 3
24 31 3
34 11 3
34 52 3
13 24 3
24 37 3
37 24 3
11 55 3
55 15 3
32 13 3
1 2 2
9 6 2
11 12 2
17 13 2
25 23 2
23 6 2
30 31 2
6 34 2
38 39 2
39 38 2
6 40 2
49 24 2
27 50 2
50 27 2
27 49 2
31 49 2
11 52 2
11 34 2
52 15 2
15 52 2
52 34 2
52 54 2
54 52 2
34 6 2
24 11 2
15 37 2
55 24 2
24 55 2
55 27 2
27 13 2
51 6 2
7 27 2
6 11 2
31 7 2
2 3 1
3 4 1
4 5 1
6 8 1
8 9 1
6 9 1
5 10 1
10 11 1
12 11 1
12 13 1
13 14 1
14 15 1
15 16 1
16 15 1
17 15 1
17 11 1
11 17 1
13 18 1
18 13 1
13 19 1
19 13 1
11 19 1
19 20 1
20 18 1
18 11 1
13 21 1
21 13 1
13 22 1
22 5 1
5 23 1
23 24 1
6 22 1
22 25 1
23 25 1
6 26 1
26 24 1
24 23 1
6 28 1
28 6 1
6 30 1
31 30 1
32 33 1
34 35 1
35 13 1
13 33 1
6 33 1
6 36 1
36 31 1
37 38 1
38 5 1
5 38 1
38 40 1
40 6 1
40 39 1
39 13 1
13 38 1
38 34 1
34 38 1
13 41 1
41 42 1
42 13 1
13 43 1
43 40 1
40 44 1
44 32 1
6 45 1
45 31 1
27 46 1
46 39 1
39 47 1
6 48 1
48 6 1
47 27 1
31 27 1
27 15 1
13 49 1
49 13 1
15 50 1
49 29 1
31 51 1
51 38 1
38 37 1
37 4 1
4 13 1
34 15 1
50 11 1
52 11 1
34 53 1
53 52 1
52 53 1
53 15 1
15 29 1
32 52 1
15 27 1
27 34 1
31 11 1
6 15 1
11 37 1
37 11 1
37 15 1
24 56 1
56 13 1
55 11 1
11 27 1
50 31 1
6 57 1
57 5 1
37 5 1
6 51 1
58 24 1
37 13 1
13 37 1
27 5 1
5 24 1
37 7 1
11 6 1
13 27 1
27 31 1
27 59 1
59 49 1
49 33 1
33 31 1
7 49 1
49 50 1
50 58 1
7 51 1
37 49 1
13 53 1
53 49 1
38 32 1
13 32 1
55 28 1
28 1 1
