15 14 15
8 6 12
6 8 11
13 12 10
16 15 10
14 15 10
12 13 9
14 16 8
12 17 8
17 15 7
15 17 6
2 11 6
17 12 6
17 13 6
15 13 6
15 16 5
13 17 5
2 3 4
2 4 4
10 11 4
11 12 4
16 14 4
13 15 4
3 2 3
5 6 3
2 6 3
4 6 3
17 16 3
11 10 3
18 17 3
10 2 3
11 2 3
4 2 2
6 5 2
6 9 2
6 14 2
14 2 2
6 2 2
3 9 2
9 3 2
6 4 2
16 2 2
17 18 2
13 16 2
16 19 2
19 15 2
21 20 2
20 14 2
14 21 2
1 2 1
3 5 1
6 7 1
7 8 1
9 8 1
6 10 1
12 10 1
10 13 1
12 6 1
6 3 1
9 6 1
9 4 1
4 8 1
8 15 1
4 17 1
17 14 1
14 6 1
6 16 1
16 6 1
8 10 1
13 2 1
2 16 1
16 17 1
17 9 1
3 18 1
15 19 1
19 14 1
16 7 1
7 10 1
2 10 1
12 14 1
14 13 1
15 12 1
16 20 1
20 21 1
21 16 1
14 20 1
20 18 1
18 16 1
15 20 1
20 15 1
15 21 1
21 17 1
16 8 1
8 14 1
14 8 1
8 4 1
4 16 1
14 17 1
12 15 1
13 22 1
