9 16 23
16 9 23
7 4 14
4 7 14
10 11 12
11 10 12
7 8 11
8 7 10
6 3 9
3 6 9
3 4 8
3 7 8
7 3 8
4 3 6
3 12 6
12 3 6
13 14 5
4 5 4
14 13 4
5 3 3
6 7 3
3 8 3
8 3 3
19 7 3
5 4 2
4 6 2
8 6 2
7 9 2
14 11 2
9 15 2
15 9 2
7 19 2
4 13 2
8 4 2
1 2 1
2 1 1
1 3 1
3 5 1
7 6 1
6 8 1
9 10 1
11 8 1
7 13 1
10 14 1
10 4 1
6 15 1
15 6 1
6 9 1
9 4 1
3 14 1
13 10 1
11 17 1
17 9 1
9 18 1
18 15 1
15 12 1
12 15 1
15 18 1
18 7 1
8 19 1
7 15 1
15 20 1
20 4 1
19 20 1
20 19 1
13 19 1
19 8 1
8 13 1
14 8 1
9 7 1
13 8 1
4 9 1
9 20 1
