14 2 33
2 14 30
14 15 28
15 14 26
15 12 25
2 15 24
15 2 24
21 16 22
12 15 21
16 21 16
16 15 14
2 3 13
2 10 13
3 2 12
2 21 12
6 2 11
16 2 11
15 16 11
2 6 10
21 2 10
2 7 9
2 26 9
64 15 9
89 2 9
10 2 9
7 2 8
2 12 8
12 16 8
26 2 8
15 64 8
79 85 8
85 79 8
2 89 8
2 16 7
16 14 7
14 12 7
66 65 7
12 2 6
21 26 6
21 27 6
12 14 6
26 14 6
14 26 6
14 16 6
15 66 6
26 21 5
27 21 5
33 21 5
65 15 5
2 79 5
81 2 5
2 81 5
89 15 5
67 64 4
74 75 4
79 2 4
79 81 4
10 89 4
16 12 3
12 3 3
51 2 3
65 67 3
79 78 3
79 80 3
80 79 3
81 79 3
89 10 3
7 6 2
6 7 2
10 9 2
9 10 2
21 22 2
15 26 2
21 37 2
37 21 2
26 39 2
39 26 2
21 47 2
47 48 2
48 47 2
47 21 2
3 12 2
63 14 2
64 65 2
73 2 2
2 73 2
2 74 2
75 74 2
75 2 2
76 74 2
78 15 2
15 78 2
78 14 2
79 83 2
83 79 2
84 78 2
78 84 2
15 89 2
9 2 2
1 2 1
3 4 1
4 2 1
2 5 1
5 6 1
6 8 1
8 2 1
7 9 1
9 7 1
7 10 1
10 7 1
7 11 1
11 6 1
2 13 1
13 2 1
12 17 1
17 14 1
2 18 1
18 19 1
19 2 1
2 20 1
20 21 1
22 21 1
22 23 1
23 21 1
2 24 1
24 21 1
21 25 1
25 21 1
21 3 1
3 21 1
27 14 1
14 21 1
21 15 1
12 28 1
28 21 1
21 29 1
29 30 1
30 31 1
31 32 1
32 21 1
16 33 1
21 33 1
21 34 1
34 35 1
35 36 1
36 33 1
16 38 1
38 26 1
26 40 1
40 41 1
41 42 1
42 41 1
41 26 1
26 41 1
41 21 1
26 33 1
21 43 1
43 44 1
44 33 1
26 45 1
45 21 1
21 46 1
46 21 1
21 49 1
49 2 1
3 15 1
15 3 1
3 16 1
16 3 1
3 50 1
50 51 1
51 52 1
52 53 1
53 54 1
54 16 1
16 55 1
55 56 1
56 54 1
54 57 1
57 51 1
15 58 1
58 15 1
12 59 1
59 2 1
2 60 1
60 12 1
15 61 1
61 14 1
26 15 1
16 62 1
62 51 1
2 51 1
51 14 1
14 51 1
2 63 1
64 66 1
65 68 1
68 64 1
12 66 1
66 67 1
64 69 1
69 65 1
65 12 1
15 70 1
70 14 1
14 71 1
71 72 1
72 14 1
14 39 1
39 73 1
73 14 1
26 16 1
16 26 1
26 74 1
74 2 1
2 75 1
75 76 1
74 77 1
77 76 1
74 76 1
76 77 1
77 2 1
2 77 1
77 12 1
15 63 1
14 78 1
14 79 1
2 82 1
82 79 1
83 80 1
80 84 1
78 2 1
78 79 1
84 79 1
79 84 1
84 83 1
83 85 1
85 83 1
83 82 1
82 83 1
81 14 1
14 86 1
86 2 1
2 87 1
87 88 1
88 89 1
89 90 1
90 89 1
89 91 1
91 89 1
2 92 1
92 89 1
15 9 1
10 92 1
92 10 1
10 93 1
93 89 1
10 94 1
94 10 1
2 95 1
95 96 1
96 10 1
10 97 1
97 10 1
10 96 1
96 2 1
10 98 1
98 2 1
2 9 1
10 99 1
