8 9 13
9 8 13
3 4 10
10 11 10
11 10 10
11 8 10
8 11 10
4 3 9
10 7 9
7 10 9
3 17 7
17 4 7
4 17 6
17 3 5
5 6 3
5 3 3
6 5 3
3 10 3
21 4 3
4 21 3
14 13 2
13 15 2
6 11 2
7 11 2
14 10 2
14 8 2
8 14 2
3 21 2
21 3 2
1 2 1
2 1 1
1 3 1
3 5 1
6 7 1
7 5 1
3 8 1
9 4 1
4 10 1
10 6 1
10 3 1
10 4 1
4 12 1
12 3 1
3 11 1
11 13 1
13 14 1
13 3 1
10 13 1
15 13 1
15 8 1
8 15 1
15 9 1
8 6 1
11 6 1
11 14 1
10 16 1
16 3 1
17 18 1
18 17 1
4 18 1
18 19 1
19 17 1
17 10 1
10 14 1
14 20 1
20 14 1
11 7 1
11 9 1
9 14 1
14 15 1
15 14 1
13 11 1
8 3 1
21 10 1
10 22 1
22 7 1
10 21 1
17 23 1
23 8 1
11 3 1
4 5 1
3 24 1
24 3 1
3 25 1
25 16 1
16 26 1
