18 8 22
8 18 20
11 9 10
9 11 10
5 4 10
4 5 9
6 12 9
12 6 8
7 6 7
5 21 7
6 7 6
10 11 5
3 15 5
21 5 5
9 10 4
13 14 3
14 5 3
15 3 3
17 11 3
3 4 2
10 9 2
11 10 2
11 17 2
16 8 2
8 19 2
19 18 2
22 5 2
6 24 2
24 6 2
8 16 2
1 2 1
2 1 1
1 3 1
5 6 1
6 8 1
8 9 1
11 12 1
6 3 1
3 7 1
7 8 1
8 6 1
12 7 1
7 11 1
11 13 1
5 14 1
4 3 1
15 16 1
16 3 1
15 17 1
11 6 1
12 11 1
11 16 1
18 3 1
3 5 1
5 19 1
19 4 1
4 20 1
20 14 1
14 13 1
13 20 1
20 4 1
4 11 1
11 19 1
19 6 1
6 21 1
21 13 1
14 20 1
20 19 1
19 22 1
5 22 1
21 4 1
4 13 1
4 9 1
11 23 1
23 6 1
6 16 1
16 18 1
16 15 1
15 6 1
6 11 1
11 8 1
8 7 1
6 19 1
19 10 1
11 3 1
4 22 1
22 4 1
21 19 1
19 5 1
21 22 1
22 21 1
4 21 1
21 25 1
25 26 1
26 4 1
4 8 1
8 3 1
3 8 1
8 27 1
