6 38 156
38 6 152
6 44 57
44 6 55
22 6 43
6 52 41
52 6 40
6 22 35
6 20 34
20 6 34
13 6 23
6 13 20
36 6 17
6 36 17
48 6 16
6 48 16
6 18 14
18 6 13
50 6 12
6 11 11
47 6 11
6 50 11
6 114 11
8 6 10
11 6 10
6 63 10
61 101 10
114 6 10
6 47 9
51 6 9
6 51 9
61 6 9
6 61 9
63 6 9
101 61 9
6 8 8
49 6 8
117 6 8
6 49 7
6 117 7
6 16 6
6 23 6
64 6 6
6 79 6
80 6 6
95 6 6
6 10 5
10 6 5
6 26 5
6 64 5
79 6 5
6 88 5
88 6 5
6 105 5
6 7 4
15 6 4
16 13 4
19 6 4
23 6 4
28 6 4
6 27 4
6 31 4
33 34 4
38 81 4
38 87 4
87 38 4
6 93 4
6 80 4
6 94 4
94 6 4
6 95 4
98 6 4
38 61 4
105 6 4
7 6 3
6 15 3
16 6 3
6 19 3
24 6 3
27 22 3
29 28 3
6 25 3
25 6 3
6 28 3
26 6 3
31 6 3
34 33 3
40 41 3
45 6 3
53 55 3
6 58 3
68 38 3
38 68 3
81 38 3
6 82 3
82 6 3
6 74 3
89 6 3
54 6 3
93 6 3
38 95 3
6 60 3
60 6 3
6 98 3
61 38 3
115 6 3
6 115 3
4 5 2
6 14 2
14 6 2
6 21 2
23 28 2
27 25 2
25 28 2
22 27 2
28 22 2
22 25 2
25 29 2
41 40 2
27 6 2
6 45 2
6 46 2
48 47 2
6 53 2
55 53 2
62 63 2
63 62 2
62 64 2
49 13 2
67 44 2
71 6 2
6 32 2
60 64 2
64 60 2
6 77 2
77 6 2
38 80 2
44 38 2
81 61 2
83 6 2
85 38 2
86 38 2
63 48 2
6 89 2
6 54 2
52 13 2
6 100 2
100 6 2
113 6 2
1 2 1
2 3 1
3 4 1
5 4 1
5 6 1
7 8 1
6 9 1
9 8 1
11 12 1
12 6 1
13 11 1
11 13 1
13 15 1
13 16 1
6 17 1
17 6 1
18 19 1
21 22 1
22 23 1
23 24 1
24 25 1
25 26 1
26 27 1
27 24 1
28 27 1
27 23 1
23 27 1
27 29 1
28 29 1
28 25 1
25 24 1
24 23 1
26 22 1
6 30 1
30 22 1
29 22 1
31 25 1
28 24 1
23 32 1
32 33 1
33 6 1
6 33 1
34 6 1
6 34 1
34 35 1
35 36 1
36 37 1
37 6 1
38 39 1
39 38 1
38 40 1
41 42 1
42 38 1
6 43 1
43 6 1
44 22 1
38 27 1
28 45 1
45 22 1
6 24 1
25 27 1
27 28 1
46 22 1
22 38 1
38 22 1
46 6 1
38 45 1
26 47 1
47 48 1
50 51 1
51 50 1
53 54 1
54 21 1
21 53 1
55 54 1
54 38 1
38 56 1
56 22 1
53 57 1
57 6 1
58 6 1
44 59 1
59 60 1
60 61 1
61 60 1
60 62 1
64 21 1
21 65 1
65 6 1
6 66 1
66 49 1
13 49 1
13 67 1
44 67 1
44 21 1
21 6 1
6 68 1
68 69 1
69 70 1
70 71 1
6 71 1
38 72 1
72 6 1
6 73 1
73 6 1
32 74 1
74 60 1
60 75 1
75 76 1
76 6 1
38 20 1
21 39 1
39 6 1
58 50 1
6 78 1
78 2 1
2 6 1
79 38 1
81 6 1
38 44 1
38 62 1
62 81 1
81 62 1
64 81 1
61 81 1
6 83 1
38 83 1
58 38 1
38 84 1
84 38 1
6 85 1
38 85 1
6 86 1
38 88 1
32 63 1
48 63 1
74 6 1
6 90 1
90 6 1
6 91 1
91 6 1
63 44 1
74 54 1
6 92 1
92 6 1
74 89 1
93 38 1
95 38 1
6 96 1
96 38 1
6 97 1
97 6 1
38 98 1
13 52 1
6 99 1
99 75 1
75 32 1
32 38 1
61 86 1
88 32 1
32 6 1
101 102 1
102 103 1
103 104 1
104 63 1
63 53 1
53 104 1
104 6 1
105 106 1
106 6 1
6 55 1
55 6 1
6 107 1
107 58 1
58 21 1
21 55 1
55 64 1
6 108 1
108 44 1
44 109 1
109 54 1
54 32 1
32 49 1
6 110 1
110 111 1
111 21 1
21 111 1
111 112 1
112 113 1
6 113 1
20 38 1
114 115 1
115 116 1
116 114 1
114 21 1
21 38 1
38 117 1
6 118 1
118 119 1
119 120 1
120 52 1
52 121 1
