7 39 156
39 7 152
7 45 57
45 7 55
23 7 43
7 53 41
53 7 40
7 23 35
7 21 34
21 7 34
14 7 23
7 14 20
37 7 17
7 37 17
49 7 16
7 49 16
7 19 14
19 7 13
51 7 12
7 12 11
48 7 11
7 51 11
7 114 11
9 7 10
12 7 10
7 63 10
61 101 10
114 7 10
7 48 9
52 7 9
7 52 9
61 7 9
7 61 9
63 7 9
101 61 9
7 9 8
50 7 8
117 7 8
7 50 7
7 117 7
7 17 6
7 24 6
64 7 6
7 79 6
80 7 6
95 7 6
7 11 5
11 7 5
7 27 5
7 64 5
79 7 5
7 88 5
88 7 5
7 105 5
7 8 4
16 7 4
17 14 4
20 7 4
24 7 4
29 7 4
7 28 4
7 32 4
34 35 4
39 81 4
39 87 4
87 39 4
7 93 4
7 80 4
7 94 4
94 7 4
7 95 4
98 7 4
39 61 4
105 7 4
8 7 3
7 16 3
17 7 3
7 20 3
25 7 3
28 23 3
30 29 3
7 26 3
26 7 3
7 29 3
27 7 3
32 7 3
35 34 3
41 42 3
46 7 3
3 55 3
7 58 3
68 39 3
39 68 3
7 33 3
81 39 3
7 82 3
82 7 3
7 74 3
89 7 3
54 7 3
93 7 3
39 95 3
7 60 3
60 7 3
7 98 3
61 39 3
115 7 3
7 115 3
5 6 2
7 15 2
15 7 2
7 22 2
24 29 2
28 26 2
26 29 2
23 28 2
29 23 2
23 26 2
26 30 2
42 41 2
28 7 2
7 46 2
7 47 2
49 48 2
7 3 2
54 22 2
55 3 2
62 63 2
63 62 2
62 64 2
50 14 2
67 45 2
71 7 2
60 64 2
64 60 2
7 77 2
77 7 2
39 80 2
45 39 2
81 61 2
83 7 2
58 39 2
85 39 2
86 39 2
63 49 2
7 89 2
7 54 2
53 14 2
7 100 2
100 7 2
113 7 2
1 2 1
2 3 1
3 4 1
4 5 1
6 5 1
6 7 1
8 9 1
7 10 1
10 9 1
12 13 1
13 7 1
14 12 1
12 14 1
14 16 1
14 17 1
7 18 1
18 7 1
19 20 1
22 23 1
23 24 1
24 25 1
25 26 1
26 27 1
27 28 1
28 25 1
29 28 1
28 24 1
24 28 1
28 30 1
29 30 1
29 26 1
26 25 1
25 24 1
27 23 1
7 31 1
31 23 1
30 23 1
32 26 1
29 25 1
24 33 1
33 34 1
34 7 1
7 34 1
35 7 1
7 35 1
35 36 1
36 22 1
22 37 1
37 38 1
38 7 1
39 40 1
40 39 1
39 41 1
42 43 1
43 39 1
7 44 1
44 7 1
45 23 1
39 28 1
29 46 1
46 23 1
7 25 1
26 28 1
28 29 1
47 23 1
23 39 1
39 23 1
47 7 1
39 46 1
27 48 1
48 49 1
51 52 1
52 51 1
3 54 1
22 3 1
55 54 1
54 39 1
39 56 1
56 23 1
3 57 1
57 7 1
58 7 1
45 59 1
59 3 1
3 60 1
60 61 1
61 60 1
60 62 1
64 22 1
22 65 1
65 7 1
7 66 1
66 50 1
14 50 1
14 67 1
45 67 1
45 22 1
22 7 1
7 68 1
68 69 1
69 70 1
70 71 1
7 71 1
39 72 1
72 7 1
7 73 1
73 7 1
33 74 1
74 60 1
60 75 1
75 76 1
76 7 1
39 21 1
22 40 1
40 7 1
58 51 1
7 78 1
78 2 1
2 7 1
79 39 1
81 7 1
39 45 1
39 62 1
62 81 1
81 62 1
64 81 1
61 81 1
7 83 1
39 83 1
39 84 1
84 39 1
7 85 1
39 85 1
7 86 1
39 88 1
33 63 1
49 63 1
74 7 1
7 90 1
90 7 1
7 91 1
91 7 1
63 45 1
74 54 1
7 92 1
92 7 1
74 89 1
93 39 1
95 39 1
7 96 1
96 39 1
7 97 1
97 7 1
39 98 1
14 53 1
7 99 1
99 75 1
75 33 1
33 58 1
61 86 1
88 33 1
33 7 1
101 102 1
102 103 1
103 104 1
104 63 1
63 3 1
3 104 1
104 7 1
105 106 1
106 7 1
7 55 1
55 7 1
33 107 1
107 58 1
58 22 1
22 55 1
55 64 1
7 108 1
108 22 1
22 45 1
45 33 1
33 109 1
109 54 1
22 33 1
33 50 1
7 110 1
110 111 1
111 22 1
22 111 1
111 33 1
33 112 1
112 113 1
7 113 1
21 39 1
114 115 1
115 116 1
116 114 1
114 39 1
39 117 1
7 118 1
118 119 1
119 120 1
120 53 1
53 121 1
