3 6 78
6 3 76
13 14 15
14 13 15
15 3 4
3 10 3
3 23 3
3 30 3
30 3 3
3 31 3
3 33 3
3 12 2
15 16 2
16 15 2
21 3 2
13 3 2
23 3 2
31 3 2
31 32 2
3 16 2
16 3 2
33 15 2
1 2 1
2 3 1
3 4 1
4 3 1
3 5 1
5 3 1
3 7 1
7 3 1
3 8 1
8 9 1
9 3 1
10 11 1
11 3 1
12 13 1
13 10 1
10 3 1
3 15 1
6 17 1
17 3 1
10 18 1
18 3 1
3 19 1
19 3 1
12 6 1
6 20 1
20 21 1
3 14 1
14 3 1
3 13 1
6 15 1
3 22 1
22 3 1
10 13 1
3 24 1
24 3 1
3 25 1
25 3 1
3 26 1
26 3 1
3 27 1
27 28 1
28 29 1
29 3 1
3 21 1
32 31 1
32 3 1
33 3 1
3 34 1
34 3 1
23 21 1
21 23 1
23 17 1
17 15 1
