19 21 66
21 19 64
27 11 23
11 27 19
11 4 17
4 11 11
19 10 9
10 19 9
4 27 9
19 11 7
4 8 6
8 19 6
11 19 6
8 4 5
4 7 5
11 21 5
27 4 5
29 28 5
31 19 5
7 4 4
4 10 4
10 4 4
4 12 4
7 19 4
21 4 4
19 8 4
8 31 4
19 31 4
31 8 4
7 11 3
12 11 3
4 14 3
5 15 3
24 11 3
3 7 3
28 29 3
21 31 3
29 4 3
4 5 2
12 13 2
13 12 2
14 4 2
11 7 2
20 19 2
21 20 2
17 19 2
19 7 2
21 7 2
15 21 2
11 3 2
14 6 2
15 8 2
31 16 2
16 5 2
4 29 2
28 4 2
1 2 1
2 3 1
3 4 1
5 4 1
4 6 1
6 7 1
4 9 1
9 4 1
14 5 1
15 10 1
10 16 1
16 17 1
17 11 1
7 18 1
18 19 1
19 20 1
20 22 1
22 7 1
19 17 1
21 23 1
23 7 1
7 12 1
11 17 1
7 21 1
19 4 1
11 16 1
16 4 1
10 15 1
21 15 1
21 10 1
19 14 1
14 24 1
4 16 1
16 9 1
9 25 1
25 8 1
8 5 1
5 11 1
11 5 1
5 24 1
7 1 1
1 21 1
19 26 1
26 21 1
21 5 1
5 19 1
19 23 1
23 21 1
4 13 1
13 11 1
15 6 1
6 9 1
9 16 1
16 14 1
6 8 1
8 15 1
8 11 1
19 3 1
3 21 1
7 28 1
28 30 1
30 16 1
16 8 1
31 21 1
8 21 1
5 8 1
8 14 1
6 31 1
19 15 1
15 19 1
19 29 1
29 11 1
11 24 1
12 24 1
24 7 1
7 32 1
32 28 1
29 33 1
33 29 1
29 7 1
7 34 1
34 29 1
28 7 1
7 29 1
4 28 1
4 31 1
31 4 1
12 4 1
27 29 1
28 10 1
10 29 1
11 10 1
10 11 1
21 27 1
4 3 1
7 3 1
3 1 1
1 19 1
