33 32 35
32 33 30
32 59 15
32 56 14
56 32 13
59 56 13
59 32 12
56 59 10
32 8 9
32 39 8
8 32 7
2 4 6
8 2 6
32 81 6
81 32 6
8 4 5
4 11 5
2 8 5
52 27 5
59 60 5
39 32 5
2 32 5
35 33 5
33 34 4
17 32 4
32 34 4
42 2 4
27 52 4
60 59 4
33 35 4
36 33 4
25 24 3
17 33 3
35 36 3
32 17 3
11 4 3
4 8 3
59 33 3
68 59 3
11 2 3
85 32 3
32 42 3
32 35 3
33 101 3
101 33 3
34 33 3
3 2 2
4 5 2
4 2 2
15 16 2
19 17 2
24 22 2
22 25 2
24 25 2
34 17 2
17 15 2
15 17 2
32 15 2
15 35 2
56 33 2
57 17 2
34 32 2
40 32 2
59 68 2
33 59 2
27 32 2
76 32 2
32 76 2
76 33 2
79 32 2
82 83 2
32 85 2
39 33 2
33 17 2
38 2 2
4 32 2
8 41 2
41 8 2
8 11 2
4 40 2
32 93 2
93 2 2
2 93 2
93 32 2
42 32 2
95 58 2
58 95 2
42 75 2
75 58 2
32 2 2
11 32 2
24 33 2
33 24 2
107 2 2
2 107 2
110 8 2
8 110 2
56 110 2
36 35 2
1 2 1
2 3 1
5 2 1
2 5 1
5 6 1
6 7 1
7 5 1
5 8 1
5 9 1
9 5 1
5 10 1
10 3 1
3 11 1
11 5 1
5 3 1
3 12 1
12 13 1
13 3 1
3 4 1
2 14 1
14 3 1
2 15 1
16 15 1
16 17 1
17 18 1
18 19 1
17 20 1
20 21 1
21 15 1
15 21 1
21 17 1
17 21 1
21 20 1
20 15 1
15 18 1
18 21 1
21 22 1
22 23 1
23 24 1
25 26 1
26 24 1
24 27 1
27 28 1
28 29 1
29 30 1
30 31 1
31 32 1
15 34 1
34 15 1
35 32 1
32 36 1
36 15 1
15 19 1
19 32 1
36 19 1
17 37 1
37 32 1
34 38 1
38 39 1
39 40 1
40 41 1
41 11 1
4 39 1
39 42 1
2 11 1
11 39 1
39 28 1
28 43 1
43 44 1
44 8 1
8 45 1
45 4 1
8 42 1
2 46 1
46 47 1
47 48 1
48 49 1
49 46 1
46 50 1
50 48 1
48 51 1
51 52 1
27 53 1
53 54 1
54 55 1
55 56 1
34 57 1
17 57 1
32 57 1
57 32 1
33 38 1
38 42 1
2 38 1
38 58 1
58 8 1
8 40 1
60 27 1
27 60 1
60 32 1
32 61 1
61 62 1
62 59 1
59 27 1
27 63 1
63 32 1
32 64 1
64 61 1
61 65 1
65 59 1
59 66 1
66 61 1
61 59 1
59 67 1
67 32 1
32 67 1
67 68 1
59 61 1
61 50 1
50 45 1
45 66 1
66 69 1
69 70 1
70 4 1
4 71 1
71 69 1
69 45 1
45 72 1
72 69 1
69 8 1
4 73 1
73 4 1
4 56 1
56 74 1
74 32 1
33 27 1
32 75 1
75 33 1
33 75 1
75 76 1
32 21 1
21 76 1
33 77 1
77 33 1
32 27 1
27 33 1
56 2 1
2 42 1
42 39 1
39 24 1
24 78 1
78 24 1
24 79 1
32 79 1
32 80 1
80 32 1
32 82 1
83 82 1
83 84 1
84 85 1
17 38 1
32 4 1
11 86 1
86 32 1
32 41 1
41 4 1
32 87 1
87 32 1
32 88 1
88 8 1
8 39 1
39 8 1
11 8 1
41 89 1
89 27 1
32 90 1
90 32 1
11 91 1
91 11 1
40 11 1
40 86 1
86 92 1
92 41 1
41 32 1
11 41 1
32 94 1
94 58 1
58 93 1
93 41 1
41 95 1
95 96 1
96 42 1
58 75 1
75 97 1
97 11 1
11 42 1
75 95 1
95 75 1
58 39 1
39 27 1
27 98 1
98 32 1
32 99 1
99 32 1
32 11 1
35 39 1
33 100 1
100 11 1
32 38 1
39 56 1
56 83 1
83 41 1
41 33 1
33 23 1
23 33 1
33 40 1
39 34 1
33 102 1
102 32 1
32 24 1
24 36 1
33 103 1
103 35 1
35 104 1
104 105 1
105 106 1
106 107 1
107 35 1
35 108 1
108 109 1
109 36 1
35 4 1
4 110 1
110 32 1
110 56 1
110 108 1
108 32 1
32 91 1
91 111 1
111 112 1
112 36 1
33 84 1
84 35 1
35 84 1
84 59 1
56 113 1
113 36 1
36 37 1
37 36 1
33 50 1
50 114 1
114 50 1
50 115 1
115 89 1
89 59 1
33 116 1
116 56 1
56 38 1
38 117 1
