11 3 11
3 11 9
3 24 7
3 27 7
3 4 6
24 3 6
4 3 5
9 10 4
10 9 4
9 11 4
20 11 4
27 3 4
27 24 4
11 20 3
24 11 3
11 9 3
11 12 2
19 9 2
9 19 2
24 27 2
1 2 1
2 3 1
4 5 1
5 6 1
6 5 1
5 7 1
7 8 1
8 9 1
9 6 1
6 9 1
12 11 1
12 9 1
9 12 1
12 13 1
13 14 1
14 9 1
9 14 1
14 15 1
15 16 1
16 17 1
17 18 1
18 11 1
11 10 1
10 19 1
19 20 1
11 21 1
21 22 1
22 11 1
11 23 1
23 3 1
11 24 1
11 25 1
25 11 1
11 26 1
26 27 1
27 28 1
28 3 1
27 29 1
29 3 1
24 30 1
30 27 1
27 31 1
31 32 1
32 4 1
3 13 1
13 4 1
4 11 1
4 19 1
19 3 1
3 33 1
33 3 1
3 19 1
19 14 1
