9 10 136
10 9 125
5 9 54
9 5 52
9 35 36
35 9 32
14 9 25
7 9 20
9 14 20
9 7 19
5 10 18
10 5 18
9 43 18
43 9 17
15 9 15
9 15 13
9 17 13
17 9 11
10 35 11
25 22 9
35 10 9
22 25 8
42 9 8
10 14 7
9 42 7
10 51 7
51 10 7
35 5 6
8 9 5
9 22 5
22 9 5
31 9 5
49 9 5
8 10 4
10 15 4
9 31 4
14 7 4
7 8 3
10 7 3
10 8 3
7 10 3
22 10 3
9 25 3
9 8 3
25 37 3
37 25 3
5 35 3
9 40 3
43 5 3
9 49 3
9 50 3
14 10 3
7 14 3
5 14 3
10 22 2
25 9 2
5 28 2
10 31 2
42 5 2
5 42 2
10 43 2
5 49 2
50 9 2
9 44 2
14 5 2
10 34 2
34 10 2
1 2 1
2 1 1
1 3 1
3 4 1
4 5 1
5 6 1
6 7 1
9 11 1
11 9 1
10 12 1
12 13 1
13 9 1
15 16 1
16 10 1
15 10 1
17 18 1
18 19 1
19 20 1
20 9 1
17 21 1
21 22 1
22 23 1
23 22 1
22 24 1
24 22 1
25 26 1
26 10 1
10 25 1
9 27 1
27 9 1
28 9 1
22 28 1
28 5 1
28 29 1
29 5 1
5 30 1
30 9 1
31 10 1
10 32 1
32 33 1
33 34 1
34 35 1
9 36 1
36 25 1
25 1 1
1 38 1
38 39 1
39 9 1
35 14 1
5 7 1
40 41 1
41 9 1
10 42 1
35 44 1
44 43 1
43 45 1
45 46 1
46 47 1
47 5 1
5 48 1
48 5 1
10 1 1
1 9 1
50 10 1
44 9 1
44 5 1
51 52 1
52 51 1
10 53 1
53 9 1
40 9 1
34 5 1
5 34 1
35 13 1
13 10 1
35 8 1
43 10 1
5 43 1
8 14 1
14 8 1
8 7 1
40 54 1
54 9 1
