8 5 35
37 5 34
5 37 33
5 8 32
5 41 14
41 5 13
33 3 11
3 33 10
11 5 8
31 5 8
5 3 8
3 5 8
4 5 7
5 4 7
5 11 7
5 31 7
61 5 5
50 8 4
5 65 4
65 5 4
5 61 3
2 3 2
5 9 2
10 11 2
5 2 2
5 35 2
41 44 2
48 42 2
42 48 2
42 37 2
53 54 2
37 42 2
3 8 2
35 5 2
5 26 2
26 5 2
5 67 2
8 50 2
5 77 2
1 2 1
3 4 1
4 6 1
6 7 1
7 4 1
4 8 1
9 5 1
5 10 1
11 12 1
12 13 1
13 4 1
4 14 1
14 15 1
15 4 1
4 15 1
15 16 1
16 17 1
17 18 1
18 4 1
4 19 1
19 20 1
20 19 1
19 4 1
4 21 1
21 22 1
22 23 1
23 24 1
24 25 1
25 26 1
26 27 1
27 28 1
28 29 1
29 30 1
30 29 1
29 31 1
31 21 1
21 32 1
32 21 1
21 31 1
31 33 1
33 34 1
34 33 1
33 5 1
5 33 1
33 35 1
35 3 1
33 36 1
36 33 1
33 2 1
2 21 1
21 37 1
37 8 1
5 38 1
38 39 1
39 21 1
21 5 1
2 40 1
40 41 1
35 42 1
42 21 1
21 41 1
41 31 1
31 43 1
43 41 1
44 41 1
44 5 1
41 45 1
45 37 1
5 46 1
46 37 1
5 47 1
47 37 1
41 37 1
37 3 1
33 41 1
5 48 1
48 37 1
37 48 1
48 31 1
31 49 1
49 2 1
3 48 1
37 31 1
5 49 1
49 50 1
5 51 1
51 5 1
2 52 1
52 5 1
5 36 1
36 5 1
5 50 1
8 53 1
54 53 1
54 5 1
5 21 1
21 49 1
49 10 1
5 55 1
55 5 1
48 5 1
41 42 1
37 2 1
2 37 1
42 56 1
56 2 1
2 49 1
49 57 1
57 5 1
5 58 1
58 8 1
5 59 1
59 5 1
5 60 1
60 61 1
9 61 1
5 62 1
62 5 1
41 2 1
2 41 1
5 63 1
63 5 1
5 64 1
64 5 1
37 21 1
21 34 1
34 5 1
8 11 1
11 49 1
49 5 1
65 66 1
66 65 1
67 5 1
67 33 1
3 68 1
68 69 1
69 68 1
68 70 1
70 35 1
8 33 1
8 71 1
71 50 1
50 5 1
5 72 1
72 5 1
5 73 1
73 5 1
5 74 1
74 5 1
5 75 1
75 5 1
5 76 1
76 5 1
77 5 1
77 41 1
41 21 1
21 78 1
78 33 1
5 79 1
79 3 1
3 80 1
