1 5 22
6 1 17
5 1 17
1 6 11
1 11 11
1 16 10
16 1 10
1 7 9
11 1 9
1 4 8
4 1 8
7 1 8
2 1 7
1 2 6
15 1 6
5 6 5
1 15 5
1 17 5
17 1 4
21 5 4
5 21 4
5 7 3
12 2 3
2 12 3
1 13 3
13 1 3
1 14 3
17 5 3
5 17 3
1 21 3
21 13 3
13 21 3
21 1 3
2 3 2
7 5 2
14 1 2
11 6 2
6 2 2
2 6 2
26 27 2
27 26 2
1 28 2
28 1 2
6 21 2
1 34 2
34 1 2
3 2 1
3 1 1
4 2 1
2 4 1
6 5 1
5 2 1
7 6 1
6 8 1
8 9 1
9 10 1
10 7 1
7 11 1
11 2 1
2 11 1
1 12 1
12 1 1
7 2 1
14 15 1
17 18 1
18 19 1
19 18 1
18 20 1
20 18 1
18 5 1
21 22 1
22 6 1
1 23 1
23 1 1
1 24 1
24 1 1
1 25 1
25 1 1
5 26 1
26 5 1
1 29 1
29 30 1
30 31 1
31 30 1
30 14 1
14 30 1
30 21 1
21 6 1
11 5 1
5 32 1
32 1 1
21 33 1
33 1 1
