28 21 110
21 28 108
32 28 73
28 32 67
21 3 36
3 21 27
6 3 26
3 6 26
28 3 23
3 28 23
6 5 19
5 6 18
3 10 17
43 21 17
5 4 16
10 3 15
4 5 14
21 20 14
21 24 14
20 21 13
5 21 13
24 21 12
3 43 12
21 43 12
21 10 11
10 21 11
28 10 10
21 5 9
21 42 9
10 28 8
42 21 8
43 3 8
45 21 8
57 21 8
10 5 7
20 5 7
21 6 7
24 3 7
21 57 7
21 45 7
5 10 6
3 24 6
28 30 6
21 32 6
24 28 6
6 21 6
5 14 5
14 5 5
5 13 5
5 20 5
27 3 5
11 21 5
21 11 5
28 24 5
6 10 4
13 5 4
14 15 4
15 5 4
3 27 4
10 26 4
26 10 4
33 21 4
21 33 4
32 21 4
21 30 4
30 21 4
13 14 3
13 15 3
30 28 3
30 32 3
2 30 3
47 21 3
10 6 3
5 57 3
57 58 3
21 51 3
60 73 3
74 75 3
15 13 2
5 17 2
17 13 2
5 3 2
24 25 2
10 24 2
24 10 2
26 27 2
3 26 2
30 2 2
30 11 2
43 44 2
44 43 2
43 45 2
45 43 2
50 10 2
43 28 2
58 57 2
3 32 2
43 32 2
32 43 2
71 20 2
6 26 2
26 6 2
73 71 2
73 74 2
3 80 2
28 20 2
20 28 2
1 2 1
2 3 1
3 4 1
4 3 1
3 5 1
5 7 1
7 2 1
2 8 1
8 9 1
9 8 1
8 5 1
5 11 1
11 5 1
10 12 1
12 5 1
5 9 1
9 5 1
4 13 1
15 16 1
16 5 1
13 17 1
17 5 1
15 14 1
4 15 1
5 15 1
15 4 1
4 18 1
18 5 1
5 19 1
19 20 1
10 4 1
4 10 1
10 22 1
22 21 1
10 23 1
23 3 1
25 21 1
3 23 1
23 24 1
25 24 1
24 26 1
27 10 1
26 24 1
10 27 1
27 26 1
26 28 1
28 29 1
29 28 1
30 31 1
31 28 1
10 33 1
33 34 1
34 21 1
21 35 1
35 21 1
32 30 1
10 11 1
11 36 1
36 21 1
21 2 1
21 37 1
37 21 1
11 10 1
10 38 1
38 39 1
39 40 1
40 10 1
10 41 1
41 3 1
42 3 1
43 30 1
11 30 1
30 46 1
46 47 1
21 46 1
46 32 1
21 47 1
47 48 1
48 21 1
32 11 1
11 46 1
46 48 1
48 47 1
32 46 1
46 49 1
49 48 1
48 32 1
32 47 1
28 50 1
3 50 1
28 51 1
51 43 1
10 52 1
52 28 1
3 53 1
53 6 1
6 43 1
43 54 1
54 21 1
3 55 1
55 56 1
56 13 1
58 51 1
51 58 1
58 5 1
57 5 1
57 59 1
59 51 1
51 59 1
59 3 1
3 57 1
51 21 1
21 60 1
60 61 1
61 62 1
62 6 1
28 43 1
43 63 1
63 64 1
64 10 1
10 46 1
46 54 1
54 43 1
43 65 1
65 54 1
54 45 1
3 66 1
66 45 1
45 67 1
67 68 1
68 43 1
45 56 1
56 43 1
51 67 1
67 43 1
21 69 1
69 21 1
28 5 1
5 70 1
70 5 1
5 71 1
20 11 1
11 6 1
6 27 1
27 6 1
6 72 1
72 60 1
71 73 1
71 60 1
73 60 1
75 4 1
4 73 1
75 73 1
73 12 1
12 75 1
75 74 1
74 4 1
4 6 1
6 74 1
75 6 1
6 76 1
76 77 1
77 78 1
78 43 1
3 79 1
79 3 1
80 3 1
3 78 1
78 3 1
80 77 1
77 76 1
76 79 1
79 21 1
43 81 1
81 21 1
51 45 1
21 82 1
82 21 1
21 83 1
83 84 1
84 58 1
58 85 1
85 10 1
6 28 1
20 71 1
28 6 1
10 60 1
60 10 1
10 86 1
86 87 1
87 86 1
86 5 1
5 85 1
85 20 1
20 81 1
81 28 1
28 88 1
88 32 1
28 71 1
71 5 1
