8 27 30
27 8 30
39 8 15
8 39 15
39 6 11
8 9 10
8 20 10
9 8 9
20 27 9
20 39 9
39 27 9
26 27 8
27 26 8
27 20 8
38 36 7
19 8 6
6 8 6
8 6 6
37 8 6
8 36 6
36 38 6
6 39 6
20 8 6
8 19 5
36 39 5
6 5 4
4 6 4
12 8 4
8 12 4
36 37 4
20 36 4
6 20 4
27 6 4
33 20 4
4 5 3
5 6 3
5 4 3
6 4 3
17 11 3
9 20 3
39 20 3
27 1 3
36 8 3
8 37 3
8 38 3
6 27 3
4 8 2
1 8 2
11 12 2
13 8 2
8 11 2
11 17 2
11 19 2
20 6 2
6 9 2
20 9 2
20 11 2
26 20 2
33 34 2
36 20 2
5 39 2
1 27 2
41 27 2
37 36 2
39 36 2
33 27 2
27 38 2
38 8 2
27 47 2
47 39 2
27 39 2
38 37 2
37 39 2
39 33 2
33 8 2
20 33 2
27 77 2
39 78 2
33 4 2
4 33 2
39 4 2
1 2 1
2 3 1
3 4 1
5 7 1
7 5 1
8 1 1
9 10 1
10 9 1
9 11 1
8 13 1
12 14 1
14 8 1
11 15 1
15 16 1
16 17 1
12 18 1
18 11 1
19 13 1
20 21 1
21 12 1
12 6 1
6 22 1
22 6 1
6 23 1
23 20 1
9 6 1
9 24 1
24 8 1
9 25 1
25 8 1
11 9 1
9 12 1
12 9 1
11 26 1
20 26 1
27 28 1
28 20 1
20 28 1
28 26 1
26 28 1
28 29 1
29 27 1
27 30 1
30 31 1
31 32 1
32 33 1
34 1 1
27 35 1
35 36 1
36 27 1
37 5 1
5 20 1
39 5 1
20 40 1
40 39 1
8 41 1
6 35 1
35 38 1
38 35 1
35 6 1
6 37 1
39 42 1
42 43 1
43 33 1
33 43 1
43 44 1
44 45 1
45 33 1
34 33 1
37 27 1
27 37 1
37 46 1
46 37 1
6 41 1
27 48 1
48 27 1
6 49 1
49 27 1
39 50 1
50 39 1
39 1 1
1 39 1
39 51 1
51 52 1
52 39 1
39 38 1
39 53 1
53 39 1
27 54 1
54 39 1
6 55 1
55 39 1
33 39 1
27 55 1
55 27 1
27 56 1
56 33 1
8 57 1
57 58 1
58 20 1
20 59 1
59 60 1
60 33 1
33 61 1
61 60 1
60 8 1
39 57 1
57 20 1
20 62 1
62 27 1
27 63 1
63 27 1
27 57 1
57 8 1
37 20 1
36 53 1
53 27 1
36 40 1
40 64 1
64 27 1
27 65 1
65 37 1
39 66 1
66 67 1
67 37 1
37 68 1
68 36 1
27 69 1
69 39 1
27 70 1
70 27 1
27 71 1
71 33 1
33 72 1
72 27 1
27 73 1
73 22 1
22 20 1
8 74 1
74 20 1
20 75 1
75 76 1
76 27 1
39 77 1
77 78 1
78 4 1
77 39 1
78 71 1
71 79 1
79 20 1
20 80 1
80 36 1
36 81 1
81 82 1
82 27 1
1 20 1
20 83 1
83 8 1
36 84 1
84 85 1
85 37 1
8 86 1
86 87 1
87 44 1
44 20 1
20 88 1
88 27 1
27 89 1
89 8 1
8 90 1
90 33 1
38 33 1
33 91 1
91 36 1
36 92 1
92 20 1
20 93 1
93 92 1
92 33 1
8 33 1
33 94 1
94 8 1
20 95 1
95 27 1
27 96 1
96 97 1
97 27 1
27 98 1
98 99 1
99 100 1
100 33 1
27 101 1
101 32 1
32 102 1
102 8 1
77 6 1
78 39 1
4 103 1
103 20 1
27 4 1
8 4 1
4 20 1
20 4 1
4 36 1
20 77 1
77 4 1
4 39 1
4 9 1
8 104 1
104 39 1
20 105 1
105 27 1
27 106 1
106 20 1
