9 14 51
14 9 47
9 13 22
13 9 20
34 18 19
18 34 18
18 44 16
44 18 16
9 49 12
3 4 10
4 3 10
49 9 10
5 6 8
6 5 7
18 19 7
19 18 6
18 43 6
43 18 6
45 9 6
9 1 5
1 9 5
15 16 5
27 15 5
15 28 5
28 15 5
9 45 5
46 9 5
9 47 5
18 52 5
16 15 4
18 20 4
15 27 4
39 9 4
52 18 4
55 9 4
20 18 3
21 18 3
18 21 3
36 37 3
9 39 3
9 42 3
42 9 3
9 26 3
9 46 3
47 9 3
46 48 3
18 51 3
51 18 3
9 54 3
54 9 3
9 55 3
9 10 2
10 9 2
9 11 2
22 18 2
21 23 2
23 21 2
18 31 2
18 9 2
37 36 2
9 38 2
40 9 2
41 36 2
13 42 2
42 13 2
13 14 2
26 9 2
46 47 2
47 46 2
48 9 2
49 46 2
47 50 2
1 2 1
2 3 1
3 5 1
6 7 1
7 5 1
5 8 1
8 9 1
11 9 1
11 12 1
12 9 1
9 15 1
16 17 1
17 18 1
20 19 1
19 21 1
21 22 1
19 22 1
22 21 1
21 19 1
18 22 1
18 24 1
24 18 1
18 25 1
25 9 1
9 19 1
19 26 1
26 19 1
19 25 1
25 27 1
15 29 1
29 30 1
30 29 1
29 9 1
14 18 1
31 18 1
31 32 1
32 31 1
31 33 1
33 34 1
9 35 1
35 18 1
18 36 1
36 9 1
38 9 1
38 32 1
32 9 1
9 32 1
32 39 1
9 40 1
14 40 1
14 41 1
36 41 1
37 9 1
9 18 1
14 13 1
9 3 1
3 9 1
13 45 1
26 46 1
49 48 1
48 49 1
50 46 1
48 46 1
50 47 1
47 18 1
52 53 1
53 18 1
19 9 1
54 14 1
14 54 1
14 55 1
9 56 1
56 57 1
57 9 1
