87 36 15
36 87 15
36 79 12
79 36 10
79 87 9
87 79 8
36 11 8
36 125 6
125 36 6
36 51 6
51 36 6
3 36 6
87 95 5
11 36 5
28 36 4
73 36 4
95 87 4
3 7 3
34 31 3
45 36 3
11 62 3
36 73 3
49 36 3
116 36 3
15 36 3
36 57 3
31 34 2
36 40 2
28 20 2
20 28 2
20 44 2
36 28 2
81 28 2
57 3 2
52 36 2
95 36 2
103 87 2
36 116 2
122 36 2
126 87 2
128 36 2
50 3 2
7 36 2
7 15 2
15 3 2
36 15 2
3 11 2
36 141 2
57 36 2
57 115 2
115 70 2
36 3 2
36 45 2
168 3 2
46 45 2
79 172 2
45 46 2
1 2 1
2 3 1
3 4 1
4 5 1
5 6 1
6 3 1
7 8 1
8 3 1
3 8 1
8 9 1
9 10 1
10 11 1
11 12 1
12 8 1
8 13 1
13 8 1
8 14 1
14 5 1
5 15 1
15 8 1
8 5 1
5 16 1
16 17 1
17 5 1
5 7 1
7 3 1
3 18 1
18 5 1
5 3 1
3 19 1
19 20 1
20 21 1
21 22 1
22 23 1
23 24 1
24 25 1
25 26 1
26 27 1
27 20 1
20 27 1
27 28 1
28 27 1
27 26 1
26 20 1
20 23 1
23 29 1
29 27 1
27 30 1
30 31 1
31 32 1
32 33 1
33 34 1
31 30 1
30 34 1
34 35 1
35 31 1
31 36 1
36 37 1
37 38 1
38 39 1
39 36 1
40 28 1
36 41 1
41 42 1
42 43 1
43 20 1
44 45 1
36 46 1
46 20 1
20 24 1
24 36 1
36 20 1
44 47 1
47 48 1
48 36 1
36 49 1
49 40 1
40 50 1
50 51 1
51 52 1
52 53 1
53 54 1
54 15 1
15 55 1
55 7 1
7 51 1
51 56 1
56 57 1
57 58 1
58 51 1
51 37 1
37 59 1
59 60 1
60 61 1
61 11 1
62 63 1
63 64 1
64 65 1
65 66 1
66 67 1
67 68 1
68 69 1
69 70 1
70 71 1
71 68 1
68 72 1
72 73 1
36 74 1
74 36 1
36 75 1
75 76 1
76 77 1
77 78 1
78 79 1
79 80 1
80 79 1
79 42 1
42 81 1
28 81 1
36 82 1
82 36 1
40 36 1
36 83 1
83 42 1
42 28 1
28 84 1
84 85 1
85 50 1
50 57 1
3 50 1
50 86 1
86 11 1
11 52 1
87 88 1
88 79 1
79 89 1
89 79 1
87 90 1
90 87 1
79 91 1
91 87 1
87 92 1
92 36 1
36 93 1
93 87 1
36 94 1
94 36 1
36 95 1
36 61 1
61 36 1
36 96 1
96 87 1
36 97 1
97 36 1
36 98 1
98 99 1
99 87 1
87 100 1
100 98 1
98 101 1
101 87 1
87 49 1
36 102 1
102 103 1
87 103 1
103 104 1
104 103 1
87 98 1
98 71 1
71 72 1
72 105 1
105 106 1
106 107 1
107 7 1
7 72 1
72 106 1
106 108 1
108 109 1
109 110 1
110 7 1
7 111 1
111 7 1
7 79 1
79 112 1
112 36 1
87 113 1
113 79 1
79 114 1
114 36 1
36 115 1
115 116 1
36 27 1
27 116 1
116 49 1
87 117 1
117 79 1
79 29 1
29 36 1
36 118 1
118 79 1
79 3 1
3 64 1
64 3 1
3 55 1
55 3 1
3 119 1
119 120 1
120 57 1
57 51 1
51 31 1
31 121 1
121 31 1
31 122 1
36 122 1
36 123 1
123 124 1
124 36 1
36 126 1
87 126 1
87 127 1
127 128 1
36 128 1
36 129 1
129 130 1
130 36 1
51 28 1
28 50 1
36 7 1
36 131 1
131 3 1
36 132 1
132 133 1
133 11 1
11 51 1
51 11 1
62 3 1
62 7 1
11 15 1
15 11 1
11 54 1
54 69 1
69 36 1
36 134 1
134 36 1
36 135 1
135 11 1
11 136 1
136 11 1
11 61 1
61 15 1
15 137 1
137 15 1
11 7 1
7 49 1
11 3 1
11 49 1
49 52 1
52 15 1
15 138 1
138 7 1
7 52 1
52 3 1
3 139 1
139 140 1
140 36 1
15 54 1
54 11 1
141 3 1
3 142 1
142 3 1
3 141 1
141 143 1
143 57 1
57 86 1
86 144 1
144 136 1
136 36 1
141 54 1
54 53 1
53 70 1
70 145 1
145 57 1
70 115 1
115 146 1
146 15 1
15 57 1
70 86 1
86 147 1
147 115 1
115 86 1
86 51 1
36 148 1
148 36 1
36 149 1
149 36 1
36 150 1
150 36 1
11 151 1
151 36 1
36 152 1
152 153 1
153 51 1
36 154 1
154 36 1
36 155 1
155 156 1
156 15 1
36 50 1
36 157 1
157 51 1
51 79 1
87 54 1
54 36 1
36 158 1
158 32 1
32 52 1
51 159 1
159 40 1
40 12 1
12 36 1
36 160 1
160 45 1
45 161 1
161 36 1
36 31 1
31 162 1
162 46 1
46 163 1
163 45 1
45 164 1
164 165 1
165 166 1
166 167 1
167 168 1
3 168 1
3 169 1
169 168 1
168 45 1
45 170 1
170 171 1
171 46 1
45 7 1
7 172 1
172 173 1
173 70 1
70 172 1
172 63 1
63 36 1
172 79 1
172 170 1
170 174 1
174 137 1
137 63 1
63 175 1
175 176 1
176 175 1
175 177 1
177 127 1
127 45 1
45 127 1
127 87 1
79 178 1
178 46 1
46 179 1
179 180 1
180 45 1
46 71 1
71 181 1
181 71 1
71 182 1
182 69 1
69 87 1
36 183 1
183 184 1
184 126 1
126 79 1
79 50 1
