6 5 52
5 6 51
5 17 8
17 5 7
6 12 6
14 6 6
16 12 6
12 16 6
17 6 6
12 6 5
6 14 5
6 17 5
14 5 4
5 14 4
17 18 4
19 6 4
19 21 4
5 10 3
10 5 3
12 13 3
13 12 3
14 17 3
18 17 3
6 19 3
21 19 3
6 7 2
7 6 2
6 16 2
16 6 2
5 19 2
21 22 2
17 24 2
1 2 1
2 3 1
3 4 1
4 5 1
5 8 1
8 5 1
5 9 1
9 5 1
5 7 1
7 5 1
5 11 1
11 6 1
13 14 1
5 13 1
12 5 1
6 13 1
13 5 1
6 15 1
15 5 1
18 14 1
17 14 1
17 19 1
19 14 1
6 20 1
20 13 1
13 6 1
22 21 1
22 12 1
12 17 1
17 23 1
23 17 1
24 5 1
5 25 1
25 5 1
24 17 1
17 16 1
16 17 1
5 26 1
