15 17 49
17 15 45
29 15 27
15 29 26
37 15 18
15 37 17
20 15 14
15 20 13
3 35 13
24 15 12
3 37 12
35 15 12
37 3 12
35 3 11
35 37 11
15 35 11
37 35 10
3 5 9
5 3 9
15 24 7
23 3 7
15 3 7
3 15 7
1 3 6
3 23 6
3 1 5
15 11 5
11 15 5
5 23 5
23 51 5
51 23 5
15 18 4
23 5 4
23 24 4
29 5 4
5 29 4
2 3 3
13 14 3
15 16 3
25 26 3
29 39 3
40 29 3
51 29 3
29 51 3
24 23 3
23 29 3
15 56 3
56 15 3
15 54 3
56 18 3
18 56 3
23 56 3
56 23 3
3 2 2
14 13 2
16 15 2
26 25 2
25 24 2
24 25 2
26 24 2
3 33 2
33 3 2
39 29 2
29 40 2
51 15 2
15 51 2
24 54 2
54 15 2
29 24 2
15 23 2
29 23 2
54 29 2
1 2 1
3 4 1
4 1 1
3 6 1
6 5 1
5 7 1
7 8 1
8 9 1
9 10 1
10 11 1
11 12 1
12 13 1
14 9 1
9 15 1
18 19 1
19 15 1
15 21 1
21 22 1
22 21 1
21 23 1
15 25 1
24 26 1
25 27 1
27 25 1
24 27 1
27 24 1
15 27 1
27 15 1
17 28 1
28 15 1
15 30 1
30 15 1
17 31 1
31 15 1
17 32 1
32 3 1
3 34 1
34 3 1
3 36 1
36 3 1
15 38 1
38 29 1
39 40 1
29 41 1
41 29 1
29 30 1
30 41 1
41 37 1
35 42 1
42 15 1
3 43 1
43 35 1
17 44 1
44 17 1
17 45 1
45 15 1
15 46 1
46 47 1
47 3 1
35 48 1
48 3 1
3 49 1
49 35 1
3 50 1
50 23 1
23 15 1
37 29 1
15 5 1
29 52 1
52 29 1
18 51 1
51 53 1
53 24 1
18 24 1
24 44 1
44 24 1
54 24 1
15 55 1
55 20 1
20 54 1
54 20 1
54 56 1
56 54 1
18 15 1
23 52 1
52 23 1
23 57 1
57 58 1
58 37 1
37 59 1
59 3 1
29 54 1
15 60 1
60 15 1
54 61 1
61 62 1
62 15 1
16 63 1
63 64 1
64 15 1
