17 18 67
18 17 66
13 9 44
9 13 43
24 9 32
9 24 32
18 13 29
13 18 26
9 17 22
17 9 21
18 9 20
9 18 19
39 13 18
13 17 17
25 13 16
13 39 16
13 25 15
15 18 15
18 15 13
24 13 12
17 13 12
9 39 11
13 24 10
24 18 10
12 13 9
27 28 9
50 13 9
17 15 9
39 9 9
13 12 8
13 50 8
18 24 8
57 13 7
18 63 7
9 10 6
28 27 6
18 52 6
15 17 6
13 57 6
60 18 6
18 60 6
63 18 6
14 15 5
17 25 5
10 9 4
14 13 4
13 14 4
15 14 4
18 25 4
25 17 4
25 24 4
52 18 4
15 54 4
54 15 4
18 73 4
73 18 4
13 26 3
32 18 3
38 18 3
18 42 3
42 18 3
49 17 3
17 49 3
24 25 3
17 55 3
18 59 3
3 2 2
3 5 2
5 3 2
5 2 2
2 5 2
3 6 2
6 3 2
2 6 2
18 19 2
19 18 2
26 13 2
13 15 2
15 13 2
12 15 2
15 12 2
18 31 2
18 32 2
36 13 2
13 37 2
37 13 2
18 38 2
18 39 2
39 18 2
13 48 2
48 13 2
25 18 2
53 18 2
54 17 2
56 9 2
59 18 2
28 18 2
55 18 2
1 2 1
2 3 1
2 4 1
4 3 1
6 5 1
5 6 1
6 2 1
6 7 1
7 8 1
8 9 1
10 11 1
11 9 1
9 12 1
12 14 1
15 16 1
16 17 1
17 20 1
20 21 1
21 9 1
9 22 1
22 9 1
9 23 1
23 24 1
26 12 1
13 27 1
28 29 1
29 30 1
30 29 1
29 17 1
31 17 1
17 33 1
33 25 1
13 32 1
25 34 1
34 35 1
35 24 1
18 36 1
13 36 1
17 38 1
31 18 1
39 40 1
40 39 1
13 41 1
41 13 1
39 43 1
43 44 1
44 17 1
17 45 1
45 18 1
18 46 1
46 18 1
17 47 1
47 9 1
9 49 1
49 18 1
18 50 1
13 51 1
51 18 1
52 17 1
17 53 1
18 53 1
52 51 1
51 17 1
55 54 1
18 54 1
9 56 1
9 14 1
14 17 1
10 18 1
17 57 1
17 58 1
58 17 1
59 15 1
15 60 1
60 17 1
17 60 1
60 61 1
61 9 1
17 11 1
11 17 1
17 62 1
62 13 1
13 62 1
62 39 1
39 17 1
63 17 1
17 63 1
63 24 1
24 39 1
39 24 1
18 64 1
64 18 1
15 65 1
65 39 1
17 27 1
18 27 1
17 39 1
39 66 1
66 15 1
15 39 1
39 67 1
67 15 1
15 9 1
9 15 1
15 68 1
68 15 1
15 69 1
69 17 1
18 55 1
55 17 1
9 70 1
70 13 1
13 56 1
13 65 1
65 6 1
6 9 1
13 71 1
71 13 1
13 34 1
34 70 1
70 9 1
13 72 1
72 18 1
18 74 1
74 13 1
