2 6 15
6 2 13
21 19 11
14 21 8
19 14 6
19 2 6
19 21 6
22 19 5
21 14 5
2 27 5
8 2 4
19 20 4
20 19 4
19 22 4
14 19 4
27 2 4
1 2 3
2 7 3
7 8 3
2 8 3
2 16 3
16 2 3
2 19 3
19 23 3
27 28 3
21 42 3
19 55 3
55 19 3
2 3 2
8 7 2
7 2 2
2 14 2
23 19 2
28 2 2
34 21 2
21 34 2
2 41 2
41 40 2
40 41 2
41 2 2
2 21 2
21 40 2
40 21 2
21 2 2
42 21 2
42 19 2
2 22 2
55 2 2
3 2 1
2 4 1
4 1 1
1 5 1
5 1 1
1 3 1
3 1 1
2 1 1
3 9 1
9 10 1
10 2 1
2 11 1
11 2 1
2 12 1
12 2 1
2 13 1
13 2 1
14 15 1
15 2 1
2 17 1
17 18 1
18 2 1
20 21 1
21 20 1
19 3 1
3 19 1
2 24 1
24 25 1
25 26 1
26 27 1
28 27 1
27 29 1
29 27 1
2 30 1
30 2 1
6 31 1
31 2 1
2 32 1
32 2 1
2 33 1
33 34 1
34 19 1
21 35 1
35 19 1
19 35 1
35 21 1
19 36 1
36 21 1
2 37 1
37 19 1
2 38 1
38 2 1
2 39 1
39 2 1
2 40 1
40 2 1
2 42 1
42 43 1
43 21 1
19 43 1
43 42 1
19 42 1
42 2 1
2 44 1
44 45 1
45 2 1
2 46 1
46 2 1
2 47 1
47 48 1
48 47 1
47 27 1
27 49 1
49 2 1
6 50 1
50 6 1
6 21 1
21 51 1
51 2 1
22 21 1
23 22 1
22 2 1
2 52 1
52 53 1
53 2 1
2 54 1
54 55 1
2 55 1
2 56 1
56 57 1
57 2 1
2 58 1
58 2 1
2 59 1
59 2 1
2 60 1
60 2 1
2 61 1
61 14 1
14 2 1
2 62 1
62 2 1
