2 5 147
5 2 133
4 2 38
2 4 26
5 4 24
31 2 17
4 5 16
2 37 15
2 31 14
37 2 13
9 2 11
2 9 11
24 2 11
2 24 11
2 3 9
20 2 9
3 2 8
5 9 8
2 23 8
55 2 8
9 5 7
2 20 6
23 2 6
5 31 6
46 21 6
2 55 6
24 23 5
23 24 5
33 5 5
21 46 5
5 20 4
23 20 4
2 21 4
21 20 4
20 24 4
5 33 4
4 20 4
2 6 3
6 2 3
9 4 3
5 15 3
20 5 3
2 28 3
28 5 3
31 5 3
4 39 3
39 4 3
44 20 3
20 4 3
24 4 3
4 44 3
44 2 3
4 52 3
53 4 3
52 5 3
4 9 2
5 12 2
5 14 2
15 5 2
20 21 2
5 21 2
21 2 2
20 23 2
21 23 2
2 33 2
35 23 2
23 35 2
30 2 2
5 39 2
39 5 2
4 31 2
2 42 2
42 2 2
5 44 2
20 44 2
47 46 2
9 48 2
48 2 2
45 5 2
9 23 2
9 24 2
23 9 2
44 4 2
4 48 2
48 4 2
52 4 2
4 53 2
5 52 2
2 38 2
1 2 1
3 4 1
2 7 1
7 2 1
2 8 1
8 2 1
4 10 1
10 11 1
11 9 1
12 13 1
13 2 1
14 2 1
15 16 1
16 15 1
15 2 1
2 17 1
17 2 1
14 18 1
18 5 1
5 19 1
19 5 1
21 5 1
2 22 1
22 2 1
24 25 1
25 20 1
24 5 1
5 26 1
26 2 1
2 26 1
26 5 1
5 27 1
27 5 1
5 28 1
28 17 1
17 29 1
29 17 1
17 28 1
28 2 1
2 30 1
30 5 1
5 32 1
32 12 1
12 20 1
23 5 1
5 24 1
24 21 1
12 33 1
33 2 1
33 34 1
34 4 1
24 30 1
30 35 1
35 24 1
24 36 1
36 30 1
37 38 1
38 2 1
37 4 1
2 40 1
40 4 1
31 4 1
31 41 1
41 5 1
42 4 1
4 42 1
4 43 1
43 5 1
20 45 1
45 21 1
21 47 1
46 47 1
21 9 1
20 48 1
48 5 1
2 45 1
5 45 1
45 9 1
44 47 1
47 45 1
5 46 1
46 5 1
2 47 1
47 9 1
9 20 1
20 9 1
9 21 1
21 4 1
2 44 1
9 44 1
2 48 1
24 9 1
48 44 1
44 9 1
4 24 1
4 23 1
23 4 1
5 49 1
49 50 1
50 4 1
4 51 1
51 4 1
5 53 1
23 30 1
5 54 1
54 2 1
38 55 1
5 55 1
38 5 1
2 34 1
34 5 1
5 56 1
56 57 1
