17 21 20
21 17 16
21 58 15
7 6 13
17 10 13
58 21 13
6 7 12
10 17 11
10 23 8
7 2 7
2 7 7
16 17 7
9 10 7
21 10 7
10 2 6
10 9 6
23 10 6
22 2 6
10 21 6
2 22 5
2 26 5
10 53 5
64 58 5
10 7 4
7 10 4
2 23 4
23 2 4
47 10 4
53 10 4
58 64 4
16 50 4
50 16 4
2 3 3
3 2 3
22 10 3
28 2 3
2 28 3
50 51 3
26 2 3
56 55 3
58 17 3
2 21 3
7 8 3
17 16 3
74 7 3
73 74 3
9 8 2
8 10 2
2 13 2
13 10 2
26 27 2
10 22 2
10 6 2
6 10 2
10 36 2
36 10 2
41 10 2
2 10 2
51 50 2
10 47 2
54 17 2
21 55 2
55 56 2
21 16 2
15 17 2
17 15 2
15 21 2
17 58 2
21 2 2
55 58 2
58 10 2
59 58 2
58 54 2
16 15 2
47 2 2
2 17 2
6 2 2
17 2 2
63 9 2
9 63 2
17 66 2
66 17 2
58 67 2
10 16 2
69 21 2
2 72 2
72 2 2
2 16 2
1 2 1
2 4 1
4 5 1
5 6 1
6 8 1
8 9 1
2 11 1
11 12 1
12 10 1
10 13 1
10 14 1
14 8 1
8 11 1
11 15 1
15 16 1
17 6 1
7 18 1
18 19 1
19 7 1
10 8 1
6 20 1
20 12 1
12 17 1
21 12 1
12 2 1
23 22 1
23 24 1
24 25 1
25 22 1
27 22 1
22 25 1
25 10 1
22 26 1
27 26 1
26 28 1
28 10 1
10 28 1
28 29 1
29 30 1
30 29 1
29 31 1
31 9 1
9 32 1
32 9 1
2 33 1
33 2 1
2 34 1
34 10 1
10 35 1
35 10 1
10 37 1
37 10 1
10 38 1
38 21 1
17 39 1
39 40 1
40 41 1
41 2 1
2 41 1
10 42 1
42 10 1
2 42 1
42 2 1
10 43 1
43 44 1
44 45 1
45 44 1
44 46 1
46 47 1
10 48 1
48 49 1
49 10 1
10 50 1
51 2 1
26 52 1
52 17 1
53 47 1
53 21 1
17 53 1
2 54 1
55 21 1
21 57 1
57 56 1
55 17 1
16 21 1
21 15 1
58 55 1
10 59 1
58 59 1
58 16 1
15 58 1
21 60 1
60 61 1
61 17 1
10 57 1
57 17 1
54 47 1
2 47 1
21 54 1
54 58 1
17 28 1
28 62 1
62 52 1
52 6 1
21 63 1
63 64 1
58 65 1
65 58 1
64 54 1
54 21 1
21 7 1
6 58 1
67 58 1
67 66 1
66 15 1
21 6 1
8 21 1
21 68 1
68 69 1
58 52 1
52 21 1
17 64 1
58 70 1
70 71 1
71 70 1
70 7 1
6 72 1
72 17 1
17 41 1
10 73 1
73 14 1
14 6 1
7 74 1
6 73 1
74 73 1
7 73 1
2 6 1
2 14 1
14 2 1
7 69 1
21 75 1
75 22 1
2 75 1
75 69 1
69 76 1
76 64 1
64 76 1
76 58 1
17 63 1
63 21 1
15 2 1
16 2 1
13 14 1
14 7 1
7 9 1
9 77 1
77 9 1
8 78 1
78 8 1
8 6 1
6 42 1
42 7 1
7 79 1
79 80 1
80 7 1
7 80 1
80 8 1
8 81 1
81 7 1
8 7 1
