8 22 20
22 8 20
25 22 15
45 22 15
22 25 14
22 45 14
21 22 12
7 8 11
22 24 10
22 21 9
8 4 8
24 22 8
8 7 7
22 26 7
28 22 7
22 35 7
3 8 6
22 28 6
8 25 6
35 22 6
22 48 6
4 8 5
45 24 5
69 24 5
45 48 5
48 22 5
26 22 4
45 8 4
57 21 4
45 69 4
25 8 4
4 7 3
24 8 3
28 7 3
8 28 3
22 31 3
37 24 3
8 41 3
41 8 3
8 45 3
22 56 3
21 57 3
45 3 3
69 45 3
72 45 3
8 48 3
48 45 3
24 21 3
69 22 3
4 3 2
27 8 2
26 25 2
22 7 2
7 28 2
31 22 2
28 8 2
24 37 2
22 40 2
21 26 2
26 8 2
21 40 2
45 21 2
24 3 2
41 22 2
22 41 2
48 8 2
24 53 2
53 24 2
56 22 2
25 4 2
4 25 2
67 68 2
68 45 2
24 45 2
21 69 2
24 69 2
48 69 2
48 68 2
25 48 2
74 22 2
26 69 2
7 69 2
69 26 2
22 69 2
21 45 2
1 2 1
2 3 1
3 4 1
4 5 1
5 6 1
6 7 1
8 9 1
9 10 1
10 11 1
11 7 1
7 12 1
12 13 1
13 12 1
12 14 1
14 12 1
12 15 1
15 16 1
16 4 1
8 10 1
10 8 1
8 17 1
17 8 1
8 18 1
18 8 1
8 19 1
19 20 1
20 21 1
22 23 1
23 22 1
25 24 1
24 27 1
8 27 1
25 26 1
7 29 1
29 22 1
22 30 1
30 22 1
21 25 1
31 32 1
32 22 1
24 25 1
25 33 1
33 25 1
22 34 1
34 22 1
25 28 1
26 29 1
29 35 1
35 36 1
36 37 1
24 38 1
38 39 1
39 21 1
40 25 1
8 35 1
40 26 1
26 41 1
41 24 1
22 42 1
42 8 1
8 21 1
40 43 1
43 21 1
40 44 1
44 22 1
26 24 1
8 46 1
46 22 1
24 28 1
28 41 1
41 47 1
47 22 1
48 26 1
26 44 1
44 48 1
8 49 1
49 24 1
22 50 1
50 22 1
8 51 1
51 22 1
22 29 1
29 52 1
52 24 1
24 54 1
54 22 1
22 55 1
55 22 1
56 57 1
21 58 1
58 59 1
59 60 1
60 24 1
24 61 1
61 24 1
24 62 1
62 4 1
8 63 1
63 41 1
41 40 1
40 22 1
25 64 1
64 22 1
24 41 1
41 45 1
45 65 1
65 3 1
3 66 1
66 45 1
3 67 1
69 21 1
69 70 1
70 48 1
24 67 1
67 45 1
69 67 1
67 22 1
48 21 1
22 71 1
71 45 1
48 72 1
8 73 1
73 8 1
48 3 1
68 67 1
68 40 1
40 72 1
48 24 1
24 74 1
35 75 1
75 3 1
8 72 1
24 48 1
48 44 1
44 45 1
45 26 1
35 24 1
21 75 1
75 8 1
8 3 1
3 45 1
35 21 1
22 76 1
76 45 1
7 77 1
77 8 1
7 25 1
25 7 1
8 24 1
22 78 1
78 22 1
45 79 1
79 7 1
7 74 1
22 79 1
79 48 1
48 80 1
80 45 1
24 81 1
81 7 1
26 45 1
69 82 1
82 24 1
24 35 1
3 24 1
48 25 1
25 45 1
24 83 1
83 84 1
84 45 1
22 85 1
85 48 1
22 86 1
86 22 1
8 87 1
87 48 1
45 88 1
88 22 1
3 69 1
22 89 1
89 7 1
7 90 1
90 21 1
21 24 1
45 91 1
91 25 1
25 21 1
