3 2 55
2 3 48
2 7 42
7 2 42
7 3 13
3 7 12
2 35 8
2 13 7
35 2 7
2 37 7
13 2 6
30 2 5
37 7 5
13 7 4
2 4 4
2 30 4
30 3 4
5 3 3
3 5 3
16 2 3
10 20 3
20 10 3
27 28 3
7 30 3
3 30 3
30 7 3
30 29 3
29 30 3
37 2 3
6 3 2
10 2 2
11 7 2
12 2 2
3 17 2
17 3 2
16 19 2
19 16 2
4 2 2
4 13 2
7 13 2
13 3 2
3 13 2
10 3 2
10 17 2
2 23 2
28 27 2
2 6 2
2 33 2
7 37 2
1 2 1
2 1 1
1 3 1
3 4 1
4 5 1
3 6 1
7 4 1
4 3 1
3 8 1
8 2 1
2 8 1
8 9 1
9 10 1
5 11 1
11 5 1
7 11 1
7 5 1
5 7 1
7 12 1
2 14 1
14 2 1
2 15 1
15 16 1
16 3 1
2 18 1
18 3 1
4 16 1
7 16 1
13 4 1
5 4 1
4 20 1
20 21 1
21 22 1
22 10 1
10 21 1
21 10 1
17 10 1
23 24 1
24 25 1
25 11 1
11 4 1
4 11 1
2 16 1
16 26 1
26 2 1
23 2 1
2 27 1
28 2 1
3 29 1
29 3 1
7 10 1
17 29 1
29 31 1
31 30 1
6 30 1
2 10 1
10 32 1
32 10 1
33 2 1
33 17 1
17 2 1
2 12 1
2 34 1
34 2 1
35 3 1
3 10 1
7 36 1
36 2 1
7 38 1
38 37 1
37 39 1
39 16 1
16 7 1
37 16 1
2 40 1
