14 10 79
10 14 75
14 24 22
24 14 22
18 17 12
17 18 11
10 27 11
27 10 11
29 10 8
10 29 8
9 10 5
10 9 4
10 17 3
17 14 3
17 10 3
13 12 2
10 16 2
16 14 2
14 17 2
14 19 2
19 14 2
23 14 2
10 26 2
26 10 2
26 27 2
27 26 2
1 2 1
2 3 1
3 4 1
4 5 1
5 6 1
6 7 1
7 8 1
8 9 1
10 11 1
11 12 1
12 13 1
12 14 1
14 13 1
12 15 1
15 9 1
9 14 1
14 20 1
20 14 1
14 21 1
21 20 1
20 21 1
21 10 1
10 22 1
22 10 1
10 23 1
24 25 1
25 24 1
14 23 1
10 19 1
19 10 1
10 28 1
28 27 1
27 29 1
29 14 1
14 30 1
30 14 1
10 18 1
14 22 1
22 31 1
31 32 1
32 33 1
33 10 1
10 34 1
34 35 1
35 10 1
