10 77 84
64 10 83
77 10 83
10 64 82
10 166 28
166 10 28
10 31 12
31 10 12
70 64 12
64 70 11
39 40 8
48 10 7
10 17 6
10 48 6
70 10 6
10 70 6
64 151 6
220 64 6
17 10 5
10 53 5
53 10 5
151 64 5
64 155 5
156 39 5
188 190 5
190 188 5
64 220 5
40 39 4
111 10 4
155 154 4
40 156 4
10 167 4
167 10 4
10 11 3
11 10 3
10 86 3
10 99 3
10 111 3
154 155 3
154 64 3
155 64 3
9 10 2
10 50 2
10 54 2
10 56 2
62 10 2
67 64 2
36 39 2
39 73 2
86 10 2
99 10 2
10 143 2
151 70 2
64 154 2
194 10 2
200 10 2
10 215 2
215 10 2
1 2 1
2 3 1
3 4 1
4 5 1
5 6 1
6 7 1
7 8 1
8 9 1
10 9 1
10 12 1
12 10 1
10 13 1
13 14 1
14 15 1
15 16 1
16 10 1
10 18 1
18 10 1
17 19 1
19 20 1
20 21 1
21 22 1
22 23 1
23 24 1
24 25 1
25 26 1
26 10 1
10 27 1
27 28 1
28 29 1
29 10 1
10 30 1
30 10 1
31 32 1
32 33 1
33 34 1
34 35 1
35 36 1
36 37 1
37 38 1
38 39 1
40 41 1
41 39 1
40 42 1
42 40 1
39 43 1
43 44 1
44 45 1
45 10 1
10 46 1
46 10 1
10 47 1
47 48 1
10 49 1
49 10 1
50 51 1
51 10 1
10 52 1
52 10 1
54 53 1
53 55 1
55 10 1
56 55 1
55 50 1
50 57 1
57 13 1
13 54 1
54 58 1
58 10 1
56 59 1
59 60 1
60 61 1
61 62 1
10 63 1
63 64 1
64 65 1
65 66 1
66 64 1
64 67 1
10 68 1
68 10 1
54 69 1
69 67 1
64 71 1
71 64 1
64 72 1
72 36 1
73 74 1
74 55 1
55 75 1
75 76 1
76 10 1
77 78 1
78 50 1
50 10 1
50 77 1
77 50 1
50 13 1
13 77 1
10 79 1
79 10 1
10 80 1
80 77 1
77 81 1
81 10 1
10 82 1
82 83 1
83 10 1
10 84 1
84 10 1
10 85 1
85 10 1
86 87 1
87 88 1
88 89 1
89 90 1
90 64 1
64 91 1
91 10 1
10 92 1
92 36 1
73 93 1
93 40 1
40 55 1
55 79 1
79 94 1
94 10 1
10 95 1
95 77 1
77 96 1
96 10 1
10 97 1
97 98 1
98 10 1
99 100 1
100 10 1
10 101 1
101 10 1
10 102 1
102 10 1
64 103 1
103 104 1
104 31 1
10 105 1
105 64 1
10 2 1
2 106 1
106 45 1
45 95 1
95 107 1
107 108 1
108 77 1
10 109 1
109 110 1
110 10 1
10 112 1
112 113 1
113 31 1
31 114 1
114 64 1
64 115 1
115 116 1
116 117 1
117 118 1
118 119 1
119 10 1
10 120 1
120 121 1
121 10 1
10 122 1
122 111 1
10 123 1
123 77 1
77 124 1
124 77 1
10 125 1
125 111 1
77 126 1
126 10 1
10 127 1
127 128 1
128 10 1
77 129 1
129 111 1
111 77 1
10 130 1
130 131 1
131 10 1
10 132 1
132 133 1
133 54 1
54 134 1
134 10 1
10 135 1
135 136 1
136 137 1
137 10 1
10 138 1
138 10 1
10 139 1
139 140 1
140 141 1
141 142 1
142 10 1
143 144 1
144 145 1
145 146 1
146 10 1
143 77 1
111 147 1
147 10 1
10 148 1
148 64 1
64 149 1
149 150 1
150 10 1
70 151 1
10 152 1
152 10 1
10 91 1
91 153 1
153 154 1
155 40 1
40 64 1
64 39 1
39 156 1
39 10 1
10 40 1
39 64 1
64 40 1
40 157 1
157 155 1
64 158 1
158 159 1
159 155 1
155 160 1
160 155 1
155 161 1
161 64 1
154 10 1
155 162 1
162 163 1
163 92 1
92 2 1
2 10 1
10 164 1
164 165 1
165 10 1
166 168 1
168 166 1
166 169 1
169 10 1
10 170 1
170 171 1
171 172 1
172 173 1
173 174 1
174 175 1
175 2 1
2 176 1
176 111 1
77 177 1
177 111 1
111 178 1
178 77 1
77 179 1
179 180 1
180 77 1
77 181 1
181 182 1
182 10 1
10 183 1
183 77 1
10 184 1
184 185 1
185 10 1
77 186 1
186 178 1
178 185 1
185 178 1
178 187 1
187 188 1
188 189 1
189 188 1
188 191 1
191 188 1
188 110 1
110 77 1
10 192 1
192 193 1
193 10 1
10 194 1
10 195 1
195 77 1
10 196 1
196 77 1
77 197 1
197 198 1
198 199 1
199 200 1
77 194 1
77 201 1
201 10 1
77 202 1
202 10 1
10 203 1
203 201 1
201 204 1
204 205 1
205 201 1
201 77 1
77 206 1
206 207 1
207 194 1
194 200 1
111 208 1
208 10 1
77 54 1
54 209 1
209 210 1
210 211 1
211 77 1
77 28 1
28 10 1
10 211 1
211 212 1
212 10 1
10 213 1
213 10 1
10 214 1
214 111 1
111 62 1
10 216 1
216 217 1
217 64 1
64 218 1
218 114 1
114 219 1
219 220 1
220 155 1
155 220 1
10 221 1
221 166 1
166 222 1
222 64 1
64 223 1
223 220 1
220 224 1
224 166 1
10 225 1
225 226 1
226 10 1
10 227 1
227 10 1
10 228 1
228 229 1
229 10 1
10 230 1
230 231 1
231 232 1
232 233 1
