19 18 41
18 19 38
5 13 33
13 5 33
10 6 32
6 10 30
39 6 23
6 39 22
65 18 19
18 65 19
18 62 14
5 4 13
5 6 13
23 6 13
6 23 13
4 39 13
39 4 13
10 18 13
62 18 13
6 5 12
32 6 12
18 10 12
17 18 11
4 5 10
18 17 10
6 32 10
54 6 10
6 54 10
23 5 8
5 10 7
5 23 7
4 6 6
18 50 5
50 18 5
10 5 5
70 5 5
5 70 5
6 4 4
29 6 4
6 16 4
16 6 4
6 42 4
16 18 4
5 39 4
39 5 4
10 56 4
5 58 4
58 5 4
6 29 3
18 16 3
49 6 3
56 16 3
16 56 3
56 10 3
16 5 2
6 37 2
42 43 2
42 6 2
18 49 2
6 18 2
6 49 2
56 6 2
59 56 2
56 59 2
22 41 2
69 70 2
1 2 1
2 3 1
3 4 1
6 7 1
7 8 1
8 9 1
9 10 1
6 11 1
11 12 1
12 6 1
6 14 1
14 4 1
4 15 1
15 5 1
5 16 1
4 16 1
5 17 1
18 20 1
20 19 1
18 21 1
21 22 1
22 23 1
23 10 1
6 19 1
18 6 1
6 24 1
24 6 1
6 25 1
25 23 1
6 26 1
26 27 1
27 28 1
28 23 1
23 29 1
6 30 1
30 19 1
18 31 1
31 18 1
18 32 1
6 33 1
33 32 1
6 34 1
34 6 1
5 35 1
35 5 1
6 36 1
36 6 1
37 6 1
37 38 1
38 4 1
6 40 1
40 41 1
41 6 1
43 6 1
43 34 1
34 44 1
44 6 1
6 45 1
45 46 1
46 47 1
47 48 1
48 18 1
49 18 1
18 51 1
51 16 1
49 39 1
18 52 1
52 5 1
5 53 1
53 5 1
18 54 1
54 55 1
55 54 1
54 32 1
32 49 1
6 56 1
6 57 1
57 5 1
10 59 1
59 60 1
60 10 1
18 5 1
4 34 1
34 5 1
4 61 1
61 23 1
23 60 1
60 18 1
62 22 1
41 22 1
41 63 1
63 64 1
64 65 1
18 66 1
66 18 1
65 67 1
67 68 1
68 10 1
10 69 1
70 69 1
70 18 1
18 1 1
