5 9 63
9 5 63
58 57 45
5 20 42
20 5 41
9 8 40
57 58 37
8 9 36
9 58 26
20 9 24
9 20 21
58 9 21
41 9 20
9 41 20
57 5 18
57 9 18
3 5 16
5 3 15
9 57 15
5 57 14
9 7 13
7 9 12
9 40 10
40 9 10
45 46 10
46 9 10
31 9 9
9 31 9
48 9 9
9 46 8
46 45 8
49 8 8
41 49 8
8 7 7
20 3 7
9 45 7
49 9 7
8 49 7
49 41 7
9 48 7
7 8 6
17 20 6
3 41 6
3 45 6
45 9 6
41 46 6
20 57 6
57 20 6
57 63 6
8 17 5
17 8 5
20 17 5
9 35 5
35 9 5
3 20 5
9 49 5
20 58 5
63 57 5
5 17 4
21 7 4
41 3 4
45 3 4
46 47 4
5 58 4
56 3 4
3 4 3
17 5 3
7 21 3
32 9 3
33 5 3
40 3 3
41 5 3
46 41 3
5 46 3
46 48 3
45 41 3
47 9 3
46 49 3
8 41 3
55 20 3
58 20 3
56 46 3
46 56 3
60 56 3
3 60 3
41 58 3
1 2 2
2 3 2
4 3 2
7 5 2
8 5 2
10 9 2
7 11 2
5 7 2
9 17 2
17 9 2
17 19 2
19 17 2
20 8 2
9 21 2
8 21 2
29 20 2
20 31 2
9 32 2
5 33 2
9 3 2
3 40 2
41 40 2
36 41 2
44 20 2
20 46 2
47 45 2
46 5 2
48 49 2
49 20 2
9 47 2
8 45 2
8 46 2
41 8 2
48 41 2
41 48 2
9 54 2
58 5 2
46 3 2
3 56 2
56 60 2
60 3 2
60 46 2
58 41 2
3 1 1
4 5 1
5 6 1
6 5 1
3 7 1
5 8 1
7 10 1
11 7 1
11 8 1
9 10 1
9 12 1
12 13 1
13 14 1
14 15 1
15 16 1
16 8 1
5 18 1
18 5 1
8 1 1
1 7 1
21 9 1
21 22 1
22 9 1
21 8 1
8 23 1
23 8 1
7 24 1
24 25 1
25 9 1
7 26 1
26 27 1
27 28 1
28 29 1
29 30 1
30 29 1
20 29 1
9 26 1
26 32 1
5 34 1
34 5 1
5 31 1
31 20 1
31 33 1
31 36 1
36 3 1
3 37 1
37 38 1
38 39 1
39 9 1
40 41 1
3 36 1
41 36 1
20 42 1
42 20 1
20 41 1
20 43 1
43 8 1
8 20 1
5 41 1
5 44 1
46 20 1
47 20 1
20 47 1
47 46 1
45 20 1
49 48 1
9 50 1
50 51 1
51 49 1
49 5 1
5 49 1
20 49 1
49 46 1
3 52 1
52 3 1
3 9 1
9 34 1
34 20 1
9 23 1
23 9 1
41 53 1
53 9 1
41 45 1
7 41 1
45 51 1
51 47 1
47 41 1
48 46 1
48 47 1
47 48 1
54 7 1
54 5 1
20 55 1
20 44 1
44 56 1
56 57 1
57 44 1
5 55 1
57 55 1
55 57 1
58 55 1
5 43 1
43 20 1
9 59 1
59 20 1
58 46 1
20 56 1
45 61 1
61 56 1
46 57 1
57 62 1
62 9 1
58 3 1
56 47 1
47 56 1
56 58 1
58 60 1
3 46 1
46 60 1
41 20 1
63 41 1
41 60 1
60 41 1
5 64 1
64 65 1
65 66 1
66 67 1
67 68 1
68 20 1
20 69 1
69 20 1
5 48 1
49 58 1
7 70 1
70 71 1
