8 31 33
31 8 33
30 31 23
31 30 19
32 31 18
8 20 16
31 32 16
20 8 14
28 31 14
31 28 12
53 31 11
21 8 9
31 53 9
6 8 8
31 20 8
20 31 8
42 30 8
9 10 7
10 9 7
30 42 6
30 56 6
31 70 6
9 11 5
8 21 5
8 28 5
28 8 5
31 34 5
34 31 5
39 30 5
31 39 5
31 42 5
6 53 5
42 31 5
8 53 5
30 53 5
21 31 5
9 13 4
50 31 4
70 53 4
39 42 4
31 40 4
10 11 3
11 10 3
13 9 3
8 13 3
30 39 3
31 50 3
53 8 3
53 6 3
56 57 3
56 30 3
53 68 3
69 29 3
29 69 3
53 69 3
69 31 3
53 21 3
53 30 3
40 31 3
70 31 3
31 21 3
11 9 2
12 6 2
8 9 2
9 25 2
25 9 2
8 6 2
29 30 2
31 33 2
33 31 2
31 13 2
21 6 2
37 31 2
31 37 2
8 30 2
42 43 2
30 47 2
44 42 2
42 44 2
57 30 2
8 32 2
53 67 2
69 53 2
53 70 2
42 39 2
72 8 2
8 70 2
70 21 2
70 8 2
39 31 2
53 20 2
30 69 2
69 30 2
13 8 2
20 53 2
1 2 1
2 3 1
3 4 1
4 5 1
5 6 1
6 5 1
5 7 1
7 8 1
8 5 1
5 9 1
9 6 1
6 12 1
13 10 1
10 14 1
14 15 1
15 16 1
16 17 1
17 18 1
18 19 1
19 20 1
13 22 1
22 23 1
23 24 1
24 18 1
18 9 1
11 8 1
20 26 1
26 27 1
27 8 1
21 28 1
8 29 1
32 30 1
31 35 1
35 30 1
30 32 1
13 21 1
31 36 1
36 33 1
33 37 1
37 9 1
10 28 1
28 38 1
38 8 1
30 29 1
30 40 1
40 39 1
39 41 1
41 42 1
43 42 1
43 30 1
39 40 1
40 44 1
44 31 1
42 45 1
45 39 1
39 46 1
46 45 1
45 46 1
46 30 1
47 30 1
47 48 1
48 49 1
49 30 1
30 50 1
8 50 1
50 51 1
51 52 1
52 53 1
28 54 1
54 44 1
44 6 1
6 42 1
31 55 1
55 31 1
8 39 1
57 56 1
56 58 1
58 29 1
29 28 1
8 59 1
59 6 1
8 60 1
60 9 1
11 18 1
18 31 1
31 10 1
11 61 1
61 9 1
9 28 1
31 62 1
62 8 1
8 63 1
63 64 1
64 8 1
31 65 1
65 8 1
31 66 1
66 53 1
67 12 1
12 53 1
53 12 1
30 6 1
68 69 1
69 70 1
70 69 1
31 71 1
71 69 1
69 39 1
31 72 1
8 73 1
73 72 1
6 70 1
20 13 1
13 6 1
70 6 1
68 6 1
68 70 1
70 68 1
68 29 1
29 74 1
74 21 1
13 53 1
40 70 1
31 67 1
67 30 1
20 75 1
75 72 1
72 53 1
20 76 1
76 69 1
69 8 1
8 69 1
69 20 1
30 21 1
30 77 1
77 78 1
78 21 1
67 21 1
32 20 1
21 32 1
20 69 1
9 30 1
53 42 1
