60 4 48
4 60 46
4 54 21
54 4 20
4 46 12
46 4 12
64 60 11
78 4 10
60 64 9
4 78 9
4 16 5
4 81 5
5 4 4
16 4 4
81 60 4
18 81 4
4 5 3
4 14 3
14 4 3
4 18 3
4 17 3
17 4 3
4 39 3
39 4 3
6 4 3
4 48 3
48 4 3
55 4 3
4 55 3
4 85 3
81 4 3
81 18 3
5 6 2
6 5 2
4 7 2
4 8 2
8 4 2
18 4 2
23 19 2
29 30 2
4 6 2
23 4 2
50 51 2
51 52 2
52 53 2
4 47 2
47 46 2
59 4 2
4 61 2
61 4 2
63 60 2
72 60 2
4 75 2
75 4 2
7 60 2
4 83 2
85 4 2
4 95 2
60 54 2
19 4 2
60 18 2
19 23 2
60 19 2
1 2 1
2 3 1
3 4 1
7 5 1
4 9 1
9 10 1
10 11 1
11 8 1
8 11 1
11 4 1
4 12 1
12 13 1
13 4 1
14 15 1
15 14 1
16 17 1
17 16 1
16 18 1
18 16 1
18 19 1
19 20 1
20 21 1
21 19 1
19 22 1
22 23 1
19 24 1
24 25 1
25 26 1
26 27 1
27 26 1
26 4 1
7 4 1
4 28 1
28 29 1
30 29 1
29 31 1
31 29 1
30 32 1
32 4 1
4 29 1
29 4 1
17 29 1
29 33 1
33 17 1
17 34 1
34 17 1
4 35 1
35 36 1
36 37 1
37 38 1
38 4 1
4 40 1
40 41 1
41 4 1
4 42 1
42 43 1
43 44 1
44 6 1
6 45 1
45 4 1
46 47 1
47 4 1
46 23 1
4 49 1
49 50 1
51 50 1
53 50 1
50 53 1
53 52 1
52 51 1
51 54 1
54 52 1
52 54 1
54 51 1
53 51 1
51 55 1
55 56 1
56 46 1
46 57 1
57 58 1
58 17 1
17 58 1
58 59 1
4 59 1
60 62 1
62 60 1
4 63 1
60 63 1
60 59 1
59 64 1
60 65 1
65 60 1
4 66 1
66 4 1
4 67 1
67 60 1
4 68 1
68 64 1
60 69 1
69 60 1
60 70 1
70 4 1
4 23 1
23 71 1
71 72 1
60 73 1
73 4 1
16 74 1
74 4 1
4 76 1
76 4 1
60 7 1
60 77 1
77 4 1
60 78 1
78 79 1
79 78 1
78 80 1
80 81 1
81 78 1
78 82 1
82 78 1
83 84 1
84 4 1
4 86 1
86 4 1
83 87 1
87 85 1
85 83 1
83 4 1
85 54 1
54 7 1
7 88 1
88 54 1
4 89 1
89 4 1
54 90 1
90 4 1
54 72 1
72 91 1
91 92 1
92 93 1
93 54 1
81 94 1
94 4 1
95 72 1
54 60 1
60 96 1
96 60 1
54 97 1
97 4 1
54 98 1
98 99 1
99 6 1
4 19 1
60 81 1
60 100 1
100 81 1
18 101 1
101 18 1
60 102 1
102 81 1
18 103 1
103 104 1
104 81 1
81 105 1
105 60 1
81 106 1
106 81 1
18 107 1
107 18 1
18 60 1
60 108 1
108 60 1
4 109 1
109 110 1
110 14 1
14 81 1
81 111 1
111 68 1
68 72 1
72 19 1
23 108 1
108 112 1
112 113 1
113 81 1
81 114 1
114 108 1
108 23 1
23 115 1
115 18 1
81 108 1
108 116 1
116 4 1
4 117 1
117 15 1
15 118 1
118 19 1
19 119 1
119 4 1
4 120 1
120 119 1
119 19 1
19 60 1
19 121 1
121 60 1
4 122 1
122 4 1
4 105 1
105 123 1
123 72 1
72 124 1
124 23 1
95 125 1
125 95 1
95 126 1
126 121 1
121 7 1
