11 4 111
4 11 108
13 4 17
4 13 16
26 4 15
27 26 15
4 27 15
26 27 14
4 23 13
4 26 13
27 4 13
4 2 12
2 4 11
23 4 11
4 42 9
4 51 9
1 2 8
4 15 8
42 4 8
51 4 8
55 4 8
32 4 7
4 55 7
2 1 6
7 2 6
15 4 6
52 4 6
2 7 5
2 11 5
1 4 5
4 1 5
4 32 5
4 52 5
13 11 4
11 2 4
32 34 4
37 4 4
4 37 4
4 43 4
7 4 3
4 7 3
1 12 3
12 1 3
11 13 3
15 16 3
11 21 3
21 13 3
34 4 3
15 33 3
33 15 3
43 4 3
49 52 3
52 49 3
2 3 2
21 11 2
13 21 2
28 26 2
4 33 2
34 32 2
15 32 2
11 3 2
45 4 2
4 46 2
46 4 2
4 49 2
52 16 2
16 53 2
49 4 2
3 2 1
4 5 1
5 6 1
6 7 1
2 8 1
8 9 1
9 10 1
10 4 1
11 1 1
4 3 1
3 1 1
11 14 1
14 4 1
16 15 1
11 15 1
16 4 1
16 11 1
11 17 1
17 18 1
18 11 1
11 19 1
19 11 1
4 20 1
20 11 1
4 22 1
22 11 1
23 24 1
24 4 1
23 25 1
25 4 1
26 28 1
26 29 1
29 27 1
27 28 1
11 30 1
30 11 1
4 31 1
31 11 1
11 32 1
33 32 1
4 34 1
34 35 1
35 4 1
4 36 1
36 37 1
37 15 1
15 38 1
38 15 1
33 34 1
4 39 1
39 11 1
4 40 1
40 4 1
3 4 1
1 11 1
3 11 1
3 41 1
41 4 1
2 12 1
12 4 1
42 11 1
43 44 1
44 45 1
4 45 1
46 10 1
10 46 1
11 47 1
47 37 1
37 11 1
13 48 1
48 13 1
4 48 1
48 31 1
31 13 1
49 50 1
50 51 1
51 49 1
53 16 1
53 52 1
16 52 1
51 52 1
4 54 1
54 26 1
27 55 1
