22 3 36
3 22 36
22 29 33
2 3 32
29 22 31
3 2 29
1 22 26
22 1 23
22 9 22
9 22 21
26 22 18
22 26 18
22 16 15
24 22 14
16 22 14
22 24 11
2 9 10
7 2 9
9 2 9
24 1 9
22 28 8
1 24 7
28 22 7
22 15 7
16 7 6
22 30 6
15 22 6
2 7 5
2 5 4
8 3 4
2 16 4
16 2 4
22 23 4
23 22 4
30 22 4
5 2 3
3 8 3
3 16 3
24 16 3
3 24 3
29 24 3
15 16 3
7 22 3
22 48 3
48 22 3
3 7 2
7 3 2
2 8 2
9 7 2
21 1 2
24 3 2
22 14 2
14 22 2
16 14 2
28 9 2
30 29 2
29 9 2
3 1 2
15 28 2
28 15 2
23 1 2
28 38 2
38 28 2
44 15 2
1 2 1
3 4 1
4 2 1
2 6 1
6 2 1
5 3 1
8 2 1
9 10 1
10 11 1
11 10 1
10 2 1
3 9 1
7 12 1
12 2 1
2 13 1
13 2 1
2 14 1
14 2 1
2 15 1
15 9 1
2 17 1
17 2 1
16 18 1
18 16 1
2 19 1
19 16 1
3 20 1
20 2 1
2 20 1
20 16 1
16 21 1
1 21 1
1 25 1
25 1 1
24 26 1
14 16 1
14 24 1
1 27 1
27 1 1
1 28 1
28 24 1
9 24 1
30 24 1
3 29 1
29 3 1
22 31 1
31 29 1
9 29 1
9 32 1
32 22 1
29 33 1
33 22 1
29 34 1
34 29 1
1 3 1
1 29 1
29 35 1
35 36 1
36 29 1
29 16 1
7 16 1
15 23 1
1 23 1
1 15 1
22 37 1
37 28 1
28 1 1
1 39 1
39 1 1
1 7 1
16 30 1
29 1 1
16 40 1
40 41 1
41 22 1
29 42 1
42 28 1
22 43 1
43 22 1
22 44 1
44 22 1
1 26 1
26 15 1
22 45 1
45 15 1
15 3 1
3 46 1
46 44 1
15 44 1
22 47 1
47 22 1
15 24 1
9 49 1
49 3 1
16 3 1
22 50 1
50 22 1
16 15 1
22 7 1
7 15 1
15 51 1
51 22 1
22 46 1
46 3 1
9 46 1
46 29 1
29 46 1
46 1 1
26 46 1
46 52 1
52 53 1
53 22 1
24 40 1
40 1 1
1 54 1
54 24 1
16 24 1
16 55 1
55 56 1
56 29 1
24 29 1
24 57 1
57 24 1
