1 5 129
5 1 129
1 2 42
2 1 41
1 15 20
15 1 19
3 1 13
1 3 12
16 1 9
21 1 9
1 8 8
1 10 8
16 15 8
2 5 7
5 2 7
8 1 7
9 1 7
1 16 7
1 21 7
1 6 6
1 9 6
15 16 6
15 5 6
5 15 6
15 18 6
18 15 6
6 1 5
5 3 5
1 11 5
17 1 5
5 18 5
17 16 5
1 18 5
18 1 5
29 5 5
32 5 5
6 5 4
3 5 4
10 1 4
5 11 4
11 1 4
12 1 4
15 17 4
5 17 4
17 5 4
18 5 4
16 18 4
5 21 4
15 22 4
1 17 4
5 29 4
5 6 3
10 9 3
11 5 3
1 12 3
1 14 3
14 1 3
5 16 3
16 17 3
18 16 3
17 15 3
5 19 3
19 20 3
20 19 3
19 1 3
26 1 3
1 26 3
2 17 3
1 31 3
11 32 3
9 10 2
10 5 2
1 13 2
13 1 2
18 17 2
16 5 2
1 19 2
19 5 2
21 5 2
22 15 2
1 23 2
23 1 2
1 24 2
24 1 2
16 25 2
25 16 2
17 2 2
31 1 2
31 16 2
16 31 2
5 32 2
1 4 1
4 1 1
2 7 1
7 5 1
5 7 1
7 2 1
3 2 1
10 12 1
5 20 1
20 5 1
22 16 1
22 1 1
15 23 1
23 15 1
24 15 1
15 24 1
18 25 1
25 17 1
2 15 1
15 26 1
26 5 1
5 27 1
27 5 1
5 10 1
10 28 1
28 1 1
1 29 1
1 28 1
28 2 1
2 3 1
1 25 1
25 1 1
2 16 1
17 18 1
15 30 1
30 15 1
8 18 1
18 2 1
31 17 1
17 11 1
1 33 1
33 1 1
