12 14 42
14 12 40
15 12 37
12 15 32
88 12 21
12 88 20
48 49 18
14 15 17
49 48 16
15 14 12
46 48 9
12 72 7
47 46 6
72 14 6
27 12 5
40 12 5
12 40 5
12 43 5
46 47 5
14 57 5
57 14 5
72 12 5
83 82 5
76 12 5
12 76 5
32 12 4
40 15 4
43 12 4
43 60 4
60 43 4
14 72 4
83 12 4
12 83 4
12 79 4
19 14 3
15 20 3
15 27 3
12 32 3
14 40 3
15 40 3
48 46 3
76 15 3
82 83 3
82 12 3
82 84 3
12 16 2
14 19 2
14 20 2
20 12 2
20 15 2
12 20 2
25 12 2
12 27 2
28 14 2
39 14 2
14 46 2
47 48 2
48 47 2
49 46 2
12 52 2
52 14 2
14 52 2
53 14 2
14 53 2
12 53 2
27 14 2
70 12 2
12 82 2
84 83 2
12 84 2
84 12 2
84 82 2
12 34 2
34 12 2
12 85 2
12 86 2
86 12 2
12 87 2
87 12 2
79 46 2
46 12 2
12 46 2
14 76 2
1 2 1
2 1 1
1 3 1
3 4 1
4 5 1
5 6 1
6 7 1
7 8 1
8 9 1
9 10 1
10 11 1
11 12 1
12 13 1
13 12 1
16 14 1
14 16 1
16 15 1
15 16 1
16 12 1
16 17 1
17 18 1
18 14 1
12 19 1
19 15 1
15 19 1
20 21 1
21 20 1
20 14 1
20 22 1
22 23 1
23 12 1
20 24 1
24 25 1
12 26 1
26 14 1
15 25 1
12 25 1
25 26 1
26 28 1
28 29 1
29 14 1
14 29 1
29 30 1
30 29 1
29 15 1
15 31 1
31 32 1
12 33 1
33 12 1
27 28 1
14 28 1
14 34 1
34 35 1
35 28 1
28 12 1
14 36 1
36 37 1
37 38 1
38 15 1
14 39 1
12 39 1
40 14 1
12 41 1
41 12 1
12 42 1
42 12 1
15 44 1
44 12 1
12 45 1
45 14 1
46 50 1
50 14 1
43 14 1
15 51 1
51 15 1
52 15 1
52 53 1
14 54 1
54 14 1
53 12 1
53 27 1
14 55 1
55 12 1
53 56 1
56 14 1
14 58 1
58 27 1
27 59 1
59 42 1
42 43 1
43 61 1
61 62 1
62 63 1
63 62 1
62 64 1
64 15 1
12 65 1
65 15 1
12 66 1
66 14 1
14 67 1
67 12 1
12 68 1
68 12 1
12 69 1
69 14 1
12 70 1
12 71 1
71 70 1
72 73 1
73 46 1
48 74 1
74 72 1
14 27 1
27 75 1
75 76 1
15 77 1
77 12 1
12 78 1
78 79 1
79 59 1
59 79 1
79 80 1
80 79 1
79 12 1
12 81 1
81 14 1
14 82 1
83 84 1
79 83 1
82 81 1
81 12 1
85 12 1
85 88 1
12 89 1
89 88 1
88 90 1
90 91 1
91 12 1
12 92 1
92 27 1
15 93 1
93 94 1
94 46 1
49 47 1
48 95 1
95 15 1
15 96 1
96 12 1
12 97 1
97 12 1
79 98 1
98 46 1
46 49 1
48 12 1
79 99 1
99 12 1
12 100 1
100 87 1
87 46 1
46 27 1
48 27 1
27 46 1
46 79 1
79 101 1
101 79 1
46 14 1
46 36 1
36 12 1
14 88 1
88 14 1
14 1 1
1 102 1
102 12 1
12 103 1
103 104 1
104 14 1
40 105 1
105 12 1
