3 8 71
8 3 64
37 3 36
3 37 34
3 24 24
24 3 24
40 37 17
37 40 14
3 40 14
3 6 13
23 8 13
8 23 13
23 40 13
8 40 13
56 40 13
6 3 12
7 8 12
40 56 12
40 8 12
26 27 11
24 8 11
8 24 11
40 3 11
16 3 10
27 26 10
40 23 10
8 16 9
19 8 9
3 19 8
17 19 8
19 3 8
8 7 7
3 16 7
8 17 7
8 19 7
23 3 7
3 23 7
24 40 7
16 8 6
40 43 6
40 24 6
2 3 5
36 6 5
43 40 5
3 17 4
27 3 4
35 17 4
6 36 4
6 17 4
6 40 4
24 6 4
40 81 4
81 40 4
3 4 3
4 3 3
3 7 3
8 12 3
26 23 3
16 24 3
24 16 3
17 8 3
8 37 3
40 38 3
38 40 3
56 23 3
40 6 3
6 24 3
19 17 3
19 24 3
35 40 3
3 2 2
3 5 2
5 3 2
11 8 2
12 8 2
8 13 2
14 3 2
14 8 2
8 14 2
3 15 2
15 3 2
17 18 2
19 20 2
8 26 2
26 3 2
8 29 2
17 35 2
17 3 2
3 27 2
44 40 2
40 49 2
3 50 2
40 52 2
17 26 2
23 6 2
17 24 2
8 56 2
27 58 2
3 60 2
60 3 2
3 61 2
61 3 2
17 56 2
24 19 2
37 8 2
40 35 2
40 83 2
1 2 1
8 9 1
9 7 1
8 10 1
10 11 1
12 7 1
7 3 1
13 14 1
3 14 1
3 11 1
11 3 1
13 7 1
8 11 1
18 17 1
18 8 1
20 19 1
20 2 1
2 8 1
8 20 1
20 8 1
8 21 1
21 3 1
8 22 1
22 23 1
24 25 1
25 3 1
17 16 1
16 26 1
23 26 1
19 16 1
3 28 1
28 3 1
29 30 1
30 8 1
29 31 1
31 32 1
32 33 1
33 27 1
27 34 1
34 27 1
26 33 1
33 3 1
3 35 1
35 27 1
27 35 1
3 36 1
16 27 1
27 16 1
37 38 1
38 37 1
37 39 1
39 37 1
40 39 1
39 40 1
40 41 1
41 42 1
42 23 1
37 44 1
44 6 1
6 44 1
40 44 1
40 45 1
45 23 1
23 37 1
40 46 1
46 47 1
47 19 1
19 48 1
48 40 1
49 40 1
49 19 1
8 6 1
19 49 1
49 17 1
24 27 1
27 19 1
3 26 1
50 3 1
24 51 1
51 52 1
52 53 1
53 16 1
16 23 1
23 16 1
16 17 1
52 40 1
52 23 1
40 26 1
26 17 1
23 54 1
54 23 1
23 55 1
55 3 1
23 17 1
24 17 1
17 2 1
2 26 1
26 8 1
27 8 1
43 8 1
17 40 1
40 16 1
16 2 1
16 37 1
37 57 1
57 3 1
8 27 1
58 27 1
58 56 1
23 59 1
59 8 1
19 40 1
23 56 1
56 35 1
56 3 1
3 62 1
62 8 1
56 27 1
19 63 1
63 64 1
64 19 1
19 65 1
65 40 1
40 19 1
17 66 1
66 67 1
67 17 1
17 41 1
41 68 1
68 3 1
17 69 1
69 3 1
19 70 1
70 3 1
17 71 1
71 24 1
3 72 1
72 24 1
24 23 1
23 24 1
3 73 1
73 74 1
74 3 1
50 23 1
6 23 1
40 75 1
75 8 1
40 2 1
2 56 1
40 76 1
76 77 1
77 78 1
78 37 1
37 79 1
79 56 1
40 80 1
80 40 1
56 80 1
80 81 1
81 35 1
81 82 1
82 40 1
83 81 1
83 84 1
84 16 1
16 56 1
56 17 1
23 19 1
8 50 1
50 24 1
40 57 1
57 40 1
37 2 1
3 85 1
85 8 1
