3 24 111
24 3 108
3 11 36
11 3 34
30 3 23
18 3 22
3 30 21
3 18 20
46 3 19
3 46 19
30 11 14
11 30 14
35 3 11
14 24 11
24 14 11
41 18 10
18 41 10
24 18 9
18 24 7
3 35 7
40 3 6
5 3 5
3 5 5
3 40 5
41 14 5
41 3 5
3 4 4
30 31 4
31 30 4
30 33 4
33 30 4
14 41 4
3 47 4
31 41 4
41 31 4
44 30 4
3 29 4
29 3 4
4 3 3
12 3 3
47 46 3
47 3 3
21 42 3
42 18 3
3 41 3
81 3 3
3 81 3
3 102 3
24 5 3
5 24 3
119 31 3
31 119 3
102 3 3
3 12 2
11 12 2
12 11 2
3 14 2
19 14 2
14 19 2
22 14 2
14 18 2
42 22 2
44 41 2
46 47 2
3 48 2
51 24 2
14 31 2
18 22 2
18 21 2
18 66 2
66 18 2
24 35 2
76 3 2
3 76 2
78 3 2
87 14 2
3 42 2
12 18 2
18 44 2
3 44 2
44 3 2
30 44 2
5 110 2
110 5 2
3 123 2
123 3 2
3 124 2
124 3 2
30 12 2
12 30 2
30 18 2
1 2 1
2 3 1
4 5 1
5 6 1
6 4 1
4 7 1
7 8 1
8 9 1
9 4 1
4 10 1
10 11 1
3 13 1
13 12 1
14 15 1
15 16 1
16 17 1
17 18 1
18 19 1
19 20 1
20 21 1
21 22 1
18 23 1
23 24 1
24 25 1
25 26 1
26 27 1
27 28 1
28 29 1
29 30 1
30 32 1
32 30 1
31 3 1
30 34 1
34 35 1
3 36 1
36 37 1
37 38 1
38 39 1
39 3 1
3 39 1
39 40 1
40 41 1
41 42 1
14 43 1
43 44 1
41 44 1
14 45 1
45 41 1
41 21 1
21 41 1
41 46 1
46 40 1
40 39 1
39 46 1
48 41 1
14 49 1
49 50 1
50 14 1
14 51 1
24 51 1
18 52 1
52 31 1
31 24 1
24 53 1
53 31 1
31 54 1
54 21 1
21 55 1
55 31 1
31 56 1
56 57 1
57 58 1
58 59 1
59 31 1
31 60 1
60 61 1
61 24 1
24 40 1
14 62 1
62 24 1
18 14 1
31 14 1
31 18 1
22 18 1
18 42 1
22 21 1
21 44 1
44 21 1
22 63 1
63 64 1
64 21 1
21 18 1
18 11 1
11 18 1
18 65 1
65 18 1
24 42 1
42 41 1
66 41 1
41 66 1
3 67 1
67 68 1
68 18 1
18 69 1
69 70 1
70 3 1
3 62 1
62 3 1
3 71 1
71 14 1
14 72 1
72 73 1
73 74 1
74 3 1
3 75 1
75 76 1
76 77 1
77 24 1
24 78 1
24 79 1
79 3 1
3 80 1
80 81 1
81 24 1
46 24 1
24 82 1
82 83 1
83 3 1
11 44 1
30 84 1
84 41 1
41 85 1
85 86 1
86 87 1
3 86 1
86 31 1
31 87 1
87 31 1
31 21 1
21 31 1
31 88 1
88 89 1
89 90 1
90 3 1
42 14 1
14 91 1
91 92 1
92 18 1
18 78 1
78 18 1
18 12 1
44 91 1
91 3 1
3 93 1
93 18 1
18 94 1
94 87 1
18 95 1
95 18 1
44 12 1
18 31 1
31 96 1
96 22 1
22 24 1
24 22 1
22 97 1
97 3 1
24 98 1
98 3 1
3 99 1
99 3 1
18 100 1
100 3 1
3 101 1
101 18 1
102 35 1
46 26 1
26 30 1
11 31 1
11 103 1
103 11 1
11 24 1
3 104 1
104 24 1
24 105 1
105 24 1
24 106 1
106 3 1
3 27 1
27 24 1
24 107 1
107 108 1
108 24 1
24 109 1
109 24 1
3 111 1
111 3 1
3 112 1
112 3 1
24 113 1
113 114 1
114 24 1
3 26 1
26 3 1
29 115 1
115 29 1
3 116 1
116 18 1
42 3 1
3 117 1
117 29 1
29 118 1
118 119 1
119 120 1
120 3 1
3 120 1
120 78 1
3 119 1
119 3 1
3 121 1
121 119 1
119 30 1
30 51 1
51 27 1
27 122 1
122 3 1
24 102 1
3 125 1
125 31 1
31 126 1
126 3 1
3 31 1
31 12 1
12 44 1
44 127 1
127 44 1
30 22 1
22 128 1
128 129 1
129 130 1
130 30 1
24 131 1
131 30 1
18 132 1
132 42 1
42 30 1
30 133 1
133 30 1
30 14 1
14 134 1
134 135 1
135 30 1
30 132 1
132 21 1
21 24 1
18 30 1
48 28 1
28 30 1
