6 27 59
27 6 53
6 22 44
22 6 41
86 6 26
59 6 25
6 86 23
6 59 21
11 6 20
6 11 19
28 27 10
24 6 9
27 28 9
6 28 9
6 83 9
83 6 9
6 23 8
23 27 8
66 27 8
27 59 8
6 25 7
6 34 7
34 6 7
28 6 7
25 6 7
50 6 7
6 50 7
59 27 7
27 66 7
7 6 6
6 66 6
75 6 6
23 25 5
23 6 5
6 32 5
27 53 5
66 75 5
78 66 5
66 78 5
6 5 4
6 7 4
5 7 4
6 26 4
25 23 4
32 6 4
27 23 4
23 34 4
34 23 4
27 34 4
63 64 4
6 75 4
26 6 3
27 24 3
24 27 3
23 11 3
27 41 3
27 25 3
27 51 3
52 53 3
53 52 3
57 27 3
64 63 3
66 6 3
75 66 3
34 25 3
84 22 3
22 84 3
5 6 2
7 5 2
16 6 2
6 16 2
6 20 2
23 24 2
25 24 2
6 24 2
31 6 2
34 27 2
11 23 2
27 38 2
41 24 2
38 27 2
41 27 2
6 21 2
51 27 2
53 27 2
53 23 2
27 57 2
27 58 2
58 59 2
66 71 2
71 66 2
75 27 2
78 6 2
25 80 2
80 25 2
78 81 2
81 78 2
78 82 2
82 78 2
25 27 2
25 34 2
75 23 2
22 97 2
97 6 2
1 2 1
2 3 1
3 4 1
4 5 1
5 8 1
8 6 1
6 9 1
9 6 1
6 10 1
10 11 1
6 12 1
12 6 1
6 13 1
13 14 1
14 6 1
6 15 1
15 16 1
16 17 1
17 6 1
6 18 1
18 11 1
11 19 1
19 6 1
20 21 1
21 20 1
20 11 1
11 22 1
22 23 1
26 24 1
28 23 1
25 29 1
29 6 1
6 30 1
30 31 1
6 31 1
32 33 1
33 6 1
27 35 1
35 6 1
24 25 1
27 20 1
20 22 1
6 36 1
36 27 1
23 17 1
17 23 1
23 37 1
37 6 1
38 39 1
39 40 1
40 6 1
24 38 1
6 38 1
38 24 1
24 41 1
41 23 1
25 41 1
27 42 1
42 27 1
6 43 1
43 24 1
27 44 1
44 24 1
24 45 1
45 24 1
27 46 1
46 6 1
21 47 1
47 48 1
48 49 1
49 21 1
21 50 1
50 27 1
51 6 1
27 22 1
20 6 1
22 27 1
27 11 1
11 27 1
27 52 1
52 27 1
53 6 1
6 52 1
52 54 1
54 27 1
27 55 1
55 56 1
56 57 1
57 25 1
25 57 1
59 25 1
25 59 1
6 51 1
51 60 1
60 61 1
61 6 1
27 62 1
62 63 1
64 65 1
65 6 1
6 63 1
63 6 1
6 67 1
67 68 1
68 69 1
69 66 1
66 70 1
70 66 1
66 72 1
72 66 1
66 73 1
73 66 1
66 74 1
74 75 1
66 25 1
25 75 1
66 23 1
23 66 1
75 76 1
76 6 1
6 77 1
77 78 1
66 79 1
79 78 1
75 79 1
79 66 1
78 75 1
25 78 1
78 3 1
3 78 1
34 59 1
21 59 1
6 84 1
84 6 1
22 83 1
83 85 1
85 86 1
6 87 1
87 27 1
11 25 1
6 88 1
88 6 1
66 89 1
89 6 1
6 90 1
90 25 1
25 90 1
90 66 1
23 75 1
27 75 1
6 3 1
3 75 1
27 91 1
91 92 1
92 6 1
27 86 1
86 27 1
59 82 1
82 59 1
59 86 1
6 70 1
70 27 1
27 93 1
93 94 1
94 86 1
6 95 1
95 6 1
22 96 1
96 22 1
22 98 1
98 66 1
27 99 1
99 27 1
