10 1 16
1 10 14
1 8 14
8 1 10
1 51 8
51 1 8
21 1 7
1 21 5
14 1 4
16 1 4
8 10 4
1 29 4
29 1 4
1 71 4
6 1 3
1 16 3
1 14 3
1 58 3
65 1 3
71 121 3
8 21 2
24 1 2
28 1 2
34 1 2
1 37 2
1 41 2
48 1 2
58 1 2
1 65 2
1 75 2
75 1 2
102 8 2
71 21 2
1 6 2
121 71 2
8 122 2
133 1 2
1 136 2
136 1 2
71 1 2
1 2 1
2 1 1
1 3 1
3 4 1
4 1 1
1 5 1
5 6 1
1 7 1
7 8 1
8 9 1
9 1 1
10 8 1
8 11 1
11 8 1
8 12 1
12 13 1
13 14 1
1 15 1
15 1 1
1 17 1
17 16 1
16 18 1
18 15 1
15 16 1
1 19 1
19 1 1
8 20 1
20 8 1
10 14 1
14 21 1
21 8 1
21 22 1
22 21 1
21 23 1
23 1 1
21 24 1
1 24 1
8 25 1
25 1 1
1 26 1
26 27 1
27 8 1
8 28 1
29 30 1
30 1 1
1 31 1
31 1 1
1 32 1
32 33 1
33 34 1
1 34 1
1 35 1
35 1 1
1 36 1
36 8 1
37 21 1
1 38 1
38 37 1
37 39 1
39 1 1
1 40 1
40 41 1
41 10 1
41 42 1
42 1 1
37 1 1
41 43 1
43 44 1
44 8 1
1 45 1
45 21 1
21 45 1
45 1 1
1 46 1
46 6 1
6 8 1
1 47 1
47 1 1
1 48 1
1 49 1
49 48 1
1 50 1
50 1 1
1 52 1
52 1 1
1 53 1
53 1 1
1 54 1
54 1 1
1 55 1
55 1 1
1 56 1
56 1 1
1 57 1
57 1 1
58 59 1
59 1 1
1 60 1
60 58 1
58 61 1
61 1 1
1 62 1
62 63 1
63 1 1
1 64 1
64 65 1
1 66 1
66 67 1
67 68 1
68 66 1
66 69 1
69 70 1
70 71 1
71 69 1
69 1 1
1 72 1
72 73 1
73 74 1
74 1 1
1 76 1
76 1 1
1 77 1
77 1 1
1 78 1
78 1 1
1 79 1
79 1 1
1 80 1
80 1 1
1 81 1
81 10 1
10 82 1
82 1 1
1 83 1
83 84 1
84 85 1
85 1 1
1 86 1
86 87 1
87 1 1
1 88 1
88 1 1
1 89 1
89 1 1
1 90 1
90 1 1
1 91 1
91 1 1
14 92 1
92 1 1
1 93 1
93 94 1
94 1 1
10 28 1
1 95 1
95 96 1
96 97 1
97 98 1
98 1 1
1 99 1
99 100 1
100 21 1
1 101 1
101 102 1
8 102 1
8 103 1
103 14 1
14 104 1
104 1 1
1 28 1
28 105 1
105 106 1
106 6 1
6 28 1
28 8 1
8 71 1
71 107 1
107 71 1
21 71 1
21 108 1
108 71 1
71 109 1
109 110 1
110 29 1
71 111 1
111 112 1
112 1 1
1 113 1
113 114 1
114 1 1
1 115 1
115 14 1
1 116 1
116 106 1
106 117 1
117 1 1
1 118 1
118 119 1
119 120 1
120 71 1
121 1 1
122 123 1
123 8 1
1 122 1
122 124 1
124 1 1
122 125 1
125 126 1
126 127 1
127 128 1
128 129 1
129 102 1
102 1 1
71 130 1
130 131 1
131 71 1
71 8 1
8 132 1
132 8 1
8 30 1
30 133 1
133 71 1
71 134 1
134 93 1
93 6 1
6 135 1
135 136 1
136 14 1
1 137 1
137 138 1
138 1 1
14 133 1
1 133 1
1 139 1
139 1 1
1 140 1
140 71 1
1 141 1
141 1 1
1 142 1
142 1 1
71 141 1
141 143 1
143 1 1
1 144 1
144 1 1
1 145 1
145 146 1
146 147 1
147 1 1
1 148 1
148 149 1
149 150 1
150 1 1
1 151 1
151 152 1
152 1 1
