13 10 48
10 13 42
5 3 27
3 5 25
24 13 23
13 24 22
12 13 12
13 12 11
32 13 10
13 32 10
18 3 8
3 18 6
5 18 5
26 13 5
18 5 4
13 25 4
25 13 4
13 26 4
13 28 4
28 13 4
9 10 3
17 5 3
5 17 3
23 13 3
7 34 3
34 7 3
4 3 2
7 4 2
4 5 2
3 7 2
10 9 2
3 13 2
10 16 2
16 13 2
3 19 2
19 3 2
10 8 2
13 23 2
27 28 2
28 27 2
13 5 2
24 26 2
1 2 1
2 3 1
3 4 1
3 6 1
6 5 1
5 6 1
6 7 1
7 5 1
5 7 1
7 3 1
3 8 1
8 9 1
10 11 1
11 12 1
13 14 1
14 13 1
10 15 1
15 5 1
13 16 1
16 10 1
10 17 1
17 3 1
3 17 1
17 8 1
8 18 1
5 13 1
10 3 1
5 4 1
3 20 1
20 15 1
15 21 1
21 22 1
22 21 1
21 3 1
3 21 1
21 13 1
8 23 1
23 10 1
10 23 1
8 24 1
24 10 1
10 24 1
25 24 1
24 25 1
13 27 1
27 13 1
3 29 1
29 15 1
15 30 1
30 15 1
15 24 1
26 24 1
13 31 1
31 32 1
32 3 1
3 33 1
33 22 1
22 4 1
4 7 1
7 35 1
35 7 1
7 24 1
