9 1 56
1 9 50
1 23 36
1 25 36
23 1 34
1 15 31
25 1 29
15 1 27
26 1 19
1 26 18
51 32 18
20 1 17
1 20 16
1 21 16
21 1 14
25 9 14
32 51 14
9 25 13
32 1 12
1 7 12
9 23 11
1 18 11
18 1 11
7 1 11
23 9 9
1 32 9
28 1 8
32 56 8
56 32 8
9 7 7
10 1 7
22 1 7
21 22 7
1 51 7
51 1 7
50 51 7
1 14 6
14 1 6
23 18 6
11 1 6
1 50 6
7 9 5
1 10 5
1 17 5
1 22 5
18 28 5
28 18 5
22 21 5
26 9 5
1 11 5
28 23 4
1 28 4
17 1 4
9 28 4
50 1 4
32 50 4
15 18 3
25 23 3
23 26 3
27 9 3
25 20 3
23 22 3
9 26 3
15 9 3
23 21 3
25 26 3
1 38 3
38 1 3
1 45 3
50 9 3
25 50 3
51 50 3
50 32 3
18 23 3
15 16 2
17 15 2
1 19 2
19 1 2
26 23 2
18 20 2
20 23 2
23 28 2
23 20 2
20 28 2
27 17 2
17 27 2
21 7 2
21 26 2
26 28 2
22 18 2
1 29 2
18 25 2
20 26 2
28 9 2
9 21 2
21 23 2
45 1 2
9 18 2
18 9 2
9 50 2
22 9 2
1 2 1
2 3 1
3 4 1
4 3 1
3 5 1
5 6 1
6 7 1
7 8 1
8 9 1
9 10 1
10 9 1
7 6 1
6 11 1
11 10 1
10 12 1
12 13 1
13 1 1
1 12 1
12 10 1
16 15 1
16 1 1
18 17 1
18 15 1
18 10 1
1 24 1
24 1 1
15 27 1
25 27 1
20 22 1
22 23 1
18 29 1
29 30 1
30 27 1
27 29 1
29 27 1
9 27 1
27 7 1
7 27 1
27 21 1
7 21 1
1 31 1
31 1 1
20 10 1
10 21 1
17 9 1
9 17 1
21 32 1
1 33 1
33 34 1
34 9 1
9 35 1
35 9 1
9 15 1
15 26 1
26 15 1
1 36 1
36 25 1
23 25 1
26 37 1
37 9 1
29 9 1
18 21 1
22 25 1
26 18 1
25 18 1
29 1 1
26 25 1
1 39 1
39 1 1
21 20 1
1 40 1
40 41 1
41 1 1
18 42 1
42 22 1
21 28 1
28 25 1
25 21 1
1 43 1
43 15 1
21 18 1
7 44 1
44 11 1
1 46 1
46 1 1
45 47 1
47 9 1
28 20 1
1 48 1
48 1 1
1 49 1
49 1 1
15 50 1
51 9 1
9 51 1
50 52 1
52 1 1
7 15 1
15 53 1
53 1 1
7 32 1
32 54 1
54 1 1
1 55 1
55 1 1
50 25 1
32 28 1
23 7 1
9 32 1
32 57 1
57 25 1
1 5 1
5 9 1
7 50 1
50 58 1
58 1 1
18 22 1
9 59 1
59 9 1
9 11 1
