3 6 70
6 3 66
27 3 20
11 3 18
3 11 17
3 27 17
7 3 16
3 7 15
5 6 13
3 22 13
6 5 12
22 3 12
3 25 9
3 4 7
22 23 7
23 22 7
25 3 7
4 3 6
32 3 6
22 27 5
3 32 5
35 32 5
32 35 5
42 3 5
18 19 4
20 3 4
25 35 4
3 42 4
19 18 3
3 20 3
27 22 3
34 3 3
35 25 3
3 38 3
3 40 3
9 3 2
3 10 2
6 14 2
14 3 2
19 3 2
3 18 2
29 27 2
27 32 2
3 33 2
33 3 2
32 25 2
25 32 2
37 32 2
38 3 2
40 3 2
40 6 2
6 42 2
3 45 2
3 34 2
32 22 2
22 32 2
1 2 1
2 3 1
4 5 1
6 7 1
6 8 1
8 9 1
3 9 1
10 3 1
10 11 1
3 12 1
12 3 1
3 13 1
13 3 1
14 15 1
15 6 1
3 14 1
3 16 1
16 11 1
3 17 1
17 18 1
3 19 1
18 3 1
18 20 1
3 21 1
21 3 1
6 22 1
6 23 1
23 3 1
3 24 1
24 3 1
22 25 1
25 22 1
22 26 1
26 22 1
3 28 1
28 29 1
27 30 1
30 31 1
31 3 1
27 29 1
32 27 1
11 34 1
35 3 1
32 36 1
36 3 1
25 37 1
32 37 1
37 3 1
3 37 1
38 39 1
39 40 1
6 40 1
40 41 1
41 6 1
42 27 1
3 43 1
43 44 1
44 27 1
45 3 1
45 34 1
34 32 1
32 46 1
