4 5 28
5 4 27
4 7 26
7 4 25
7 10 6
12 10 6
4 21 6
10 4 5
10 12 5
11 4 5
4 22 5
5 6 4
7 11 4
11 7 4
12 13 4
13 10 4
4 12 4
21 7 4
22 4 4
19 21 4
21 19 4
6 5 3
4 2 3
9 7 3
2 11 3
13 12 3
21 14 3
7 21 3
21 4 3
10 13 3
2 4 2
2 7 2
7 2 2
4 10 2
10 7 2
7 13 2
13 4 2
4 13 2
7 5 2
11 12 2
12 11 2
11 9 2
12 4 2
20 11 2
14 21 2
14 4 2
21 11 2
12 14 2
10 11 2
11 21 2
7 20 2
24 25 2
5 24 2
4 11 2
11 14 2
14 11 2
4 26 2
26 4 2
20 19 2
12 29 2
1 2 1
2 3 1
3 4 1
6 4 1
4 8 1
8 4 1
4 9 1
11 2 1
10 2 1
12 7 1
13 14 1
14 7 1
4 15 1
15 7 1
7 14 1
14 15 1
15 13 1
9 15 1
15 16 1
16 17 1
17 1 1
1 18 1
18 4 1
4 19 1
19 9 1
2 12 1
13 20 1
21 2 1
11 13 1
13 21 1
21 13 1
14 19 1
19 4 1
4 14 1
14 10 1
10 19 1
19 12 1
14 12 1
13 9 1
22 1 1
1 23 1
23 22 1
22 24 1
25 24 1
25 5 1
24 5 1
24 4 1
5 7 1
9 11 1
11 20 1
20 7 1
4 27 1
27 22 1
22 7 1
19 20 1
19 14 1
7 12 1
13 7 1
5 28 1
28 4 1
29 10 1
10 29 1
29 12 1
29 4 1
4 30 1
30 29 1
