2 4 27
4 2 21
15 2 15
2 15 14
20 2 14
2 20 11
2 8 10
8 2 10
2 11 6
26 2 5
2 5 4
12 2 4
2 26 4
2 9 3
9 2 3
10 2 3
11 2 3
2 14 3
11 15 3
15 11 3
11 10 3
11 14 3
11 8 3
19 20 3
3 2 2
5 2 2
5 7 2
7 2 2
8 11 2
2 12 2
13 12 2
14 11 2
11 3 2
9 10 2
10 11 2
9 11 2
4 15 2
20 19 2
2 19 2
19 2 2
2 22 2
22 2 2
24 11 2
11 24 2
15 19 2
19 10 2
8 15 2
14 9 2
1 2 1
2 3 1
5 6 1
6 2 1
4 5 1
2 10 1
2 13 1
14 2 1
3 11 1
14 10 1
10 9 1
11 12 1
12 11 1
4 13 1
13 11 1
10 8 1
8 4 1
4 9 1
11 9 1
8 13 1
13 2 1
4 12 1
4 16 1
16 2 1
2 16 1
16 17 1
17 2 1
15 4 1
4 18 1
18 19 1
19 21 1
21 20 1
4 10 1
11 20 1
2 23 1
23 24 1
11 4 1
19 15 1
20 25 1
25 26 1
26 19 1
19 26 1
4 19 1
19 11 1
24 14 1
14 27 1
27 14 1
14 24 1
24 3 1
3 14 1
14 3 1
3 20 1
10 19 1
15 8 1
9 19 1
10 4 1
2 28 1
28 14 1
10 3 1
3 29 1
29 30 1
30 13 1
12 8 1
14 15 1
15 31 1
31 2 1
