2 10 17
10 2 17
2 3 16
3 2 14
3 7 12
5 20 12
20 5 12
5 3 11
7 3 11
3 5 10
2 21 10
20 7 9
21 2 9
2 7 8
7 2 8
7 13 6
7 20 6
7 32 6
32 7 6
8 9 5
9 8 5
7 9 5
7 12 5
12 7 5
3 13 5
13 7 5
12 3 4
3 12 4
13 3 4
2 18 4
18 2 4
7 27 4
27 7 4
31 7 4
7 31 4
2 8 3
8 7 3
9 7 3
7 10 3
10 7 3
13 29 3
7 34 3
34 3 3
3 4 2
9 3 2
3 9 2
17 2 2
7 19 2
23 3 2
23 2 2
2 23 2
7 28 2
28 7 2
9 2 2
3 34 2
34 7 2
1 2 1
4 2 1
3 6 1
6 2 1
8 2 1
4 9 1
9 11 1
11 8 1
7 14 1
14 15 1
15 14 1
14 16 1
16 17 1
2 17 1
19 7 1
19 20 1
7 21 1
21 22 1
22 21 1
21 23 1
3 24 1
24 23 1
2 25 1
25 21 1
21 24 1
24 7 1
7 26 1
26 2 1
2 26 1
26 21 1
21 26 1
26 7 1
7 8 1
29 13 1
13 30 1
30 13 1
29 26 1
26 3 1
3 26 1
26 31 1
31 3 1
3 31 1
31 4 1
4 7 1
8 20 1
7 5 1
3 20 1
21 7 1
29 2 1
2 5 1
5 2 1
2 33 1
33 3 1
7 33 1
33 35 1
