2 13 29
5 2 27
2 5 25
13 2 25
2 11 18
11 2 18
2 7 17
7 2 17
8 2 10
13 5 10
2 21 10
5 13 9
19 11 9
11 19 9
21 2 9
2 8 8
7 8 8
11 7 7
8 7 5
7 11 5
2 4 4
2 17 4
2 23 4
23 2 4
3 2 3
4 3 3
6 5 3
11 8 3
16 2 3
17 2 3
26 24 3
24 26 3
5 3 2
5 6 2
6 2 2
2 6 2
8 11 2
2 12 2
12 2 2
13 6 2
6 13 2
15 2 2
2 16 2
1 2 1
2 3 1
4 2 1
3 4 1
4 5 1
3 5 1
3 6 1
8 9 1
9 10 1
10 2 1
13 14 1
14 13 1
13 11 1
8 15 1
2 15 1
17 16 1
2 18 1
18 2 1
2 19 1
19 20 1
20 2 1
21 11 1
13 8 1
2 22 1
22 2 1
13 7 1
2 24 1
24 25 1
25 26 1
26 11 1
