3 7 60
7 3 52
8 19 44
19 8 42
6 3 29
3 6 29
8 3 22
14 3 21
3 8 20
19 33 19
3 14 18
33 19 18
6 25 15
6 7 13
25 6 13
8 33 13
33 8 13
7 6 12
14 13 11
13 14 10
3 11 8
11 3 8
8 9 7
9 8 7
12 8 7
8 12 7
19 20 7
14 6 6
20 19 6
12 3 6
25 19 6
6 14 5
25 47 5
19 25 5
3 12 4
13 7 4
7 13 4
3 23 4
36 3 4
14 38 4
38 14 4
47 25 4
3 4 3
4 3 3
7 8 3
20 8 3
25 26 3
26 25 3
3 36 3
7 14 3
47 14 3
25 51 3
51 25 3
2 3 2
14 15 2
16 3 2
8 20 2
7 22 2
23 3 2
24 25 2
25 27 2
27 25 2
28 14 2
3 29 2
29 7 2
7 36 2
38 3 2
7 12 2
19 3 2
3 38 2
44 45 2
7 38 2
38 47 2
7 48 2
48 49 2
25 7 2
3 19 2
19 28 2
28 19 2
1 2 1
3 2 1
3 5 1
5 6 1
9 10 1
10 9 1
12 6 1
6 13 1
13 6 1
15 16 1
6 17 1
17 18 1
18 7 1
8 21 1
21 8 1
22 7 1
22 3 1
23 6 1
6 24 1
25 24 1
25 14 1
3 28 1
14 28 1
6 12 1
29 30 1
30 8 1
8 23 1
23 12 1
7 31 1
31 8 1
8 32 1
32 19 1
33 3 1
14 34 1
34 7 1
15 6 1
6 16 1
7 35 1
35 36 1
36 7 1
36 25 1
25 37 1
37 25 1
25 13 1
12 7 1
23 7 1
6 36 1
36 6 1
3 13 1
13 37 1
37 6 1
7 37 1
37 3 1
13 3 1
3 33 1
33 39 1
39 8 1
19 40 1
40 41 1
41 19 1
8 42 1
42 43 1
43 19 1
38 29 1
3 44 1
45 44 1
45 8 1
19 46 1
46 38 1
14 47 1
47 3 1
7 25 1
49 48 1
49 14 1
48 25 1
19 50 1
50 19 1
19 14 1
14 19 1
19 26 1
26 27 1
27 3 1
8 6 1
19 47 1
25 38 1
38 7 1
13 25 1
47 7 1
7 47 1
