4 8 60
8 4 52
9 20 44
20 9 42
7 4 29
4 7 29
9 4 21
15 4 21
4 9 19
20 34 19
4 15 18
34 20 18
7 26 15
7 8 13
26 7 13
9 34 13
34 9 13
8 7 12
15 14 11
14 15 10
4 12 8
12 4 8
9 10 7
10 9 7
13 9 7
9 13 7
20 21 7
21 20 6
13 4 6
26 20 6
15 7 5
26 48 5
20 26 5
4 13 4
14 8 4
8 14 4
7 15 4
4 24 4
37 4 4
15 39 4
39 15 4
48 26 4
4 5 3
5 4 3
8 9 3
21 9 3
26 27 3
27 26 3
4 37 3
8 15 3
48 15 3
26 52 3
52 26 3
3 4 2
15 16 2
17 4 2
9 21 2
8 23 2
24 4 2
25 26 2
26 28 2
28 26 2
29 15 2
4 30 2
30 8 2
8 37 2
39 4 2
8 13 2
20 4 2
4 39 2
45 46 2
8 39 2
39 48 2
8 49 2
49 50 2
26 8 2
4 20 2
20 29 2
29 20 2
1 2 1
2 3 1
4 3 1
4 6 1
6 7 1
10 11 1
11 10 1
13 7 1
7 14 1
14 7 1
16 17 1
7 18 1
18 19 1
19 8 1
9 22 1
22 9 1
23 8 1
23 4 1
24 7 1
7 25 1
26 25 1
26 15 1
4 29 1
15 29 1
7 13 1
30 31 1
31 9 1
9 24 1
24 13 1
8 32 1
32 9 1
9 33 1
33 20 1
34 4 1
15 35 1
35 8 1
16 7 1
7 17 1
8 36 1
36 37 1
37 8 1
37 26 1
26 38 1
38 26 1
26 14 1
13 8 1
24 8 1
7 37 1
37 7 1
4 14 1
14 38 1
38 7 1
8 38 1
38 4 1
14 4 1
4 34 1
34 40 1
40 9 1
20 41 1
41 42 1
42 20 1
9 43 1
43 44 1
44 20 1
39 30 1
4 45 1
46 45 1
46 9 1
20 47 1
47 39 1
15 48 1
48 4 1
8 26 1
50 49 1
50 15 1
49 26 1
20 51 1
51 20 1
20 15 1
15 20 1
20 27 1
27 28 1
28 4 1
9 7 1
20 48 1
26 39 1
39 8 1
14 26 1
48 8 1
8 48 1
