1 43 56
43 1 54
6 7 32
7 6 28
6 25 13
1 6 13
1 17 12
17 1 12
4 5 10
25 6 10
25 7 10
7 25 10
2 3 9
1 21 9
25 1 9
1 25 9
3 2 8
7 1 8
21 1 8
7 4 8
1 4 7
37 1 7
1 7 6
1 8 6
18 1 6
62 25 6
6 1 6
8 1 5
4 7 5
1 27 5
27 1 5
1 37 5
40 1 5
6 17 5
17 6 5
6 4 5
25 62 5
5 1 5
8 25 5
5 4 4
5 6 4
1 9 4
11 1 4
4 1 4
1 28 4
28 1 4
25 35 4
35 25 4
1 38 4
1 40 4
43 39 4
43 40 4
40 43 4
8 7 4
25 8 4
9 1 3
1 11 3
14 1 3
1 18 3
7 8 3
26 11 3
11 26 3
1 34 3
39 1 3
38 1 3
6 44 3
5 7 3
43 7 3
12 6 3
39 40 3
4 62 3
8 63 3
6 8 3
7 5 3
68 34 3
1 12 2
12 1 2
1 14 2
1 16 2
16 1 2
1 22 2
22 1 2
4 6 2
1 5 2
8 6 2
36 35 2
35 36 2
25 37 2
44 6 2
39 43 2
8 43 2
7 43 2
26 6 2
4 8 2
62 4 2
62 8 2
63 8 2
43 5 2
26 10 2
10 11 2
5 67 2
34 68 2
6 43 2
7 17 2
1 2 1
3 1 1
1 10 1
10 1 1
12 13 1
13 12 1
9 14 1
1 15 1
15 1 1
1 19 1
19 18 1
17 20 1
20 1 1
21 23 1
23 1 1
6 5 1
5 24 1
24 1 1
1 26 1
7 29 1
29 8 1
8 29 1
29 26 1
26 27 1
27 25 1
25 30 1
30 25 1
25 31 1
31 25 1
25 32 1
32 33 1
33 1 1
34 1 1
34 17 1
17 35 1
35 17 1
17 36 1
36 33 1
33 25 1
38 37 1
38 39 1
40 41 1
41 1 1
1 42 1
42 40 1
1 39 1
43 37 1
37 43 1
44 7 1
7 45 1
45 46 1
46 6 1
25 43 1
1 47 1
47 4 1
4 48 1
48 5 1
5 48 1
48 49 1
49 50 1
50 48 1
48 6 1
6 48 1
48 1 1
40 51 1
51 38 1
1 51 1
51 1 1
1 52 1
52 1 1
1 53 1
53 1 1
1 54 1
54 1 1
1 55 1
55 1 1
1 56 1
56 1 1
1 57 1
57 1 1
1 58 1
58 1 1
1 59 1
59 1 1
43 4 1
43 58 1
58 43 1
9 6 1
6 9 1
9 10 1
10 26 1
26 60 1
60 26 1
6 12 1
6 26 1
26 12 1
6 11 1
11 12 1
6 61 1
61 6 1
40 39 1
63 5 1
5 62 1
8 62 1
25 64 1
64 65 1
65 25 1
25 65 1
65 64 1
64 66 1
66 25 1
25 28 1
28 5 1
4 18 1
37 38 1
38 43 1
16 26 1
5 8 1
8 26 1
26 7 1
7 26 1
10 16 1
67 68 1
34 5 1
67 34 1
34 69 1
69 39 1
43 25 1
25 70 1
70 7 1
7 15 1
15 7 1
25 67 1
67 1 1
25 4 1
43 6 1
4 71 1
71 6 1
1 72 1
72 11 1
11 14 1
14 10 1
10 7 1
17 10 1
11 9 1
6 18 1
34 25 1
