3 7 159
7 3 158
3 13 25
13 3 25
3 5 19
5 3 16
3 2 9
7 5 9
5 7 7
15 3 7
3 15 7
4 3 6
7 9 6
9 10 6
8 3 6
2 3 5
9 7 5
10 3 5
11 7 5
9 3 5
3 23 5
2 4 4
6 3 4
7 11 4
7 10 4
3 8 4
15 23 4
3 10 4
23 11 4
23 8 4
40 7 4
5 6 3
8 6 3
3 6 3
13 7 3
10 7 3
10 9 3
3 9 3
23 3 3
7 29 3
3 33 3
35 7 3
7 35 3
11 23 3
7 40 3
29 3 3
3 4 2
7 8 2
6 5 2
3 12 2
7 6 2
6 9 2
6 8 2
9 8 2
8 9 2
23 13 2
2 7 2
3 24 2
28 3 2
3 31 2
31 3 2
7 31 2
35 3 2
33 7 2
23 15 2
8 23 2
8 15 2
38 13 2
8 7 2
7 41 2
41 7 2
3 29 2
1 2 1
6 7 1
8 5 1
5 8 1
12 3 1
12 7 1
5 14 1
14 15 1
7 16 1
16 7 1
7 17 1
17 7 1
7 15 1
15 7 1
10 18 1
18 9 1
10 19 1
19 5 1
10 8 1
15 9 1
5 20 1
20 7 1
2 14 1
14 2 1
13 21 1
21 13 1
13 22 1
22 3 1
13 23 1
24 3 1
24 7 1
3 25 1
25 3 1
7 26 1
26 3 1
9 15 1
5 27 1
27 28 1
29 7 1
29 11 1
5 28 1
3 30 1
30 7 1
7 32 1
32 3 1
33 13 1
7 13 1
7 34 1
34 7 1
3 34 1
34 35 1
3 35 1
3 36 1
36 3 1
31 7 1
5 9 1
5 23 1
15 8 1
11 3 1
23 10 1
10 6 1
6 10 1
10 15 1
15 5 1
13 37 1
37 13 1
13 38 1
3 38 1
13 39 1
39 13 1
7 33 1
33 8 1
31 40 1
7 19 1
19 7 1
7 42 1
42 3 1
7 2 1
3 43 1
