2 5 143
5 2 143
12 2 26
2 12 24
2 3 21
3 2 17
5 3 8
3 5 7
2 17 7
5 8 6
8 9 6
14 2 6
2 14 6
2 7 6
4 2 5
11 5 5
9 8 5
8 2 5
17 2 5
7 2 5
3 4 4
7 4 4
8 5 4
9 2 4
2 4 4
5 11 4
2 18 4
4 3 3
2 10 3
12 5 3
5 9 3
9 5 3
4 7 3
2 8 3
18 2 3
5 22 3
2 25 3
2 9 3
36 2 3
22 2 3
4 5 2
10 2 2
5 4 2
4 8 2
8 7 2
7 8 2
2 6 2
18 12 2
2 19 2
20 2 2
5 23 2
23 2 2
25 5 2
18 14 2
14 18 2
18 11 2
31 12 2
7 5 2
5 33 2
33 5 2
17 36 2
2 22 2
1 2 1
5 6 1
6 7 1
3 7 1
10 5 1
3 13 1
13 14 1
5 15 1
15 5 1
5 16 1
16 5 1
9 3 1
8 4 1
14 8 1
17 13 1
13 17 1
6 12 1
12 18 1
17 5 1
19 2 1
19 5 1
6 2 1
2 20 1
18 5 1
8 18 1
3 21 1
21 5 1
22 5 1
22 11 1
5 24 1
24 2 1
25 12 1
5 25 1
25 2 1
5 12 1
3 8 1
3 18 1
11 18 1
11 26 1
26 7 1
7 18 1
18 7 1
7 14 1
14 7 1
7 11 1
11 2 1
7 27 1
27 28 1
28 9 1
9 4 1
4 9 1
8 29 1
29 14 1
14 3 1
3 20 1
12 30 1
30 12 1
12 31 1
2 31 1
12 32 1
32 12 1
5 7 1
5 34 1
34 5 1
5 35 1
35 5 1
5 17 1
2 36 1
