26 21 25
21 26 22
44 21 6
21 20 5
21 125 5
20 44 4
21 44 4
125 21 4
45 20 3
36 21 3
96 26 3
38 26 2
44 20 2
20 46 2
46 20 2
53 21 2
26 36 2
45 61 2
69 36 2
36 68 2
68 21 2
20 45 2
36 26 2
40 38 2
36 40 2
26 96 2
26 66 2
21 130 2
130 21 2
26 20 2
1 2 1
2 3 1
3 4 1
4 5 1
5 6 1
6 7 1
7 8 1
8 9 1
9 10 1
10 8 1
8 11 1
11 12 1
12 13 1
13 14 1
14 12 1
12 15 1
15 12 1
12 16 1
16 17 1
17 18 1
18 19 1
19 20 1
20 17 1
17 21 1
21 8 1
8 21 1
21 22 1
22 21 1
21 23 1
23 20 1
20 21 1
20 24 1
24 25 1
25 21 1
21 27 1
27 28 1
28 29 1
29 28 1
28 21 1
21 30 1
30 21 1
21 31 1
31 32 1
32 20 1
20 33 1
33 34 1
34 20 1
20 35 1
35 36 1
36 35 1
35 21 1
20 37 1
37 38 1
21 39 1
39 20 1
20 40 1
40 41 1
41 42 1
42 43 1
43 44 1
44 45 1
20 47 1
47 48 1
48 26 1
21 49 1
49 50 1
50 51 1
51 52 1
52 26 1
21 53 1
21 54 1
54 28 1
28 55 1
55 56 1
56 53 1
21 57 1
57 21 1
36 58 1
58 59 1
59 60 1
60 45 1
61 20 1
20 26 1
21 62 1
62 59 1
59 18 1
18 63 1
63 64 1
64 36 1
36 44 1
21 65 1
65 44 1
44 66 1
66 67 1
67 20 1
20 36 1
21 68 1
68 69 1
21 69 1
21 70 1
70 21 1
21 71 1
71 21 1
26 72 1
72 21 1
21 73 1
73 36 1
36 72 1
72 74 1
74 26 1
26 75 1
75 76 1
76 20 1
20 72 1
72 77 1
77 40 1
40 20 1
46 78 1
78 46 1
45 44 1
44 59 1
59 78 1
78 18 1
18 40 1
40 28 1
28 70 1
70 66 1
66 79 1
79 80 1
80 81 1
81 82 1
82 21 1
21 36 1
26 83 1
83 84 1
84 36 1
21 18 1
18 36 1
36 38 1
38 40 1
38 85 1
85 86 1
86 87 1
87 26 1
26 88 1
88 89 1
89 90 1
90 91 1
91 40 1
38 36 1
40 36 1
36 59 1
59 83 1
83 92 1
92 93 1
93 94 1
94 21 1
21 95 1
95 96 1
26 97 1
97 98 1
98 99 1
99 26 1
26 100 1
100 40 1
40 97 1
97 96 1
26 101 1
101 36 1
26 92 1
92 102 1
102 101 1
101 102 1
102 58 1
58 18 1
18 102 1
102 21 1
21 103 1
103 21 1
21 104 1
104 105 1
105 44 1
44 100 1
100 106 1
106 107 1
107 38 1
38 79 1
79 108 1
108 102 1
102 109 1
109 110 1
110 111 1
111 26 1
26 112 1
112 38 1
66 96 1
96 113 1
113 26 1
66 114 1
114 115 1
115 40 1
40 116 1
116 66 1
66 26 1
96 40 1
40 117 1
117 21 1
40 92 1
92 118 1
118 104 1
104 119 1
119 120 1
120 21 1
21 121 1
121 36 1
21 40 1
40 59 1
59 21 1
21 122 1
122 123 1
123 21 1
21 15 1
15 123 1
123 26 1
26 124 1
124 26 1
125 26 1
44 126 1
126 127 1
127 128 1
128 129 1
129 40 1
40 21 1
20 76 1
76 26 1
26 122 1
122 26 1
21 131 1
131 130 1
21 132 1
132 21 1
130 133 1
133 134 1
134 21 1
21 135 1
135 130 1
130 136 1
136 137 1
137 138 1
138 139 1
139 130 1
130 140 1
140 130 1
130 141 1
141 26 1
26 140 1
140 21 1
21 142 1
142 143 1
143 21 1
21 144 1
144 67 1
67 121 1
121 145 1
145 146 1
146 145 1
145 21 1
21 92 1
92 21 1
21 84 1
84 21 1
20 92 1
92 45 1
61 45 1
20 147 1
147 148 1
148 21 1
21 149 1
149 150 1
150 66 1
66 151 1
151 21 1
21 152 1
152 153 1
153 154 1
154 74 1
74 38 1
38 155 1
155 156 1
156 28 1
28 26 1
26 157 1
157 21 1
21 158 1
158 159 1
159 61 1
61 26 1
20 160 1
160 26 1
26 161 1
161 162 1
