19 1 67
1 19 62
29 1 21
1 29 21
48 1 14
19 29 13
29 19 13
1 48 12
1 66 9
1 6 8
6 1 7
1 22 7
1 55 7
66 1 7
1 18 6
22 1 6
1 26 6
53 19 6
55 1 6
18 1 5
19 22 5
27 1 5
1 27 5
26 1 5
1 49 5
19 53 5
22 19 4
26 25 4
19 27 4
1 28 4
19 25 4
25 19 4
49 1 4
1 4 3
4 1 3
27 19 3
28 1 3
30 33 3
25 26 3
53 1 3
1 53 3
1 72 3
1 2 2
2 1 2
1 9 2
9 1 2
1 21 2
17 1 2
1 25 2
25 1 2
22 26 2
28 19 2
30 1 2
1 31 2
1 30 2
33 30 2
1 33 2
33 1 2
22 29 2
36 1 2
35 19 2
1 35 2
1 36 2
44 19 2
19 26 2
19 48 2
54 1 2
1 57 2
1 61 2
63 1 2
65 1 2
72 1 2
75 1 2
1 3 1
3 1 1
4 5 1
5 4 1
1 7 1
7 1 1
1 8 1
8 1 1
6 10 1
10 6 1
6 11 1
11 12 1
12 13 1
13 14 1
14 15 1
15 16 1
16 17 1
17 2 1
2 18 1
18 19 1
19 18 1
18 20 1
20 1 1
21 18 1
18 22 1
22 2 1
2 23 1
23 17 1
22 24 1
24 19 1
21 19 1
18 21 1
21 1 1
25 21 1
21 22 1
27 22 1
19 28 1
29 30 1
31 29 1
29 32 1
32 1 1
31 1 1
33 19 1
26 30 1
30 17 1
17 30 1
30 22 1
26 34 1
34 35 1
35 36 1
1 37 1
37 38 1
38 1 1
1 39 1
39 35 1
19 37 1
37 40 1
40 1 1
35 41 1
41 42 1
42 1 1
36 39 1
39 36 1
36 43 1
43 39 1
39 1 1
1 44 1
19 44 1
26 45 1
45 1 1
1 46 1
46 1 1
1 47 1
47 19 1
48 49 1
49 28 1
28 29 1
29 48 1
26 29 1
1 50 1
50 48 1
1 17 1
49 19 1
48 51 1
51 52 1
52 1 1
1 52 1
52 53 1
29 54 1
1 54 1
55 19 1
19 56 1
56 37 1
37 19 1
57 19 1
57 29 1
19 58 1
58 59 1
59 1 1
1 59 1
59 60 1
60 1 1
61 1 1
61 62 1
62 63 1
1 64 1
64 65 1
65 63 1
1 65 1
66 65 1
66 67 1
67 19 1
29 68 1
68 17 1
17 69 1
69 70 1
70 1 1
29 71 1
71 1 1
72 73 1
73 1 1
1 74 1
74 75 1
1 75 1
1 76 1
