8 3 34
18 23 34
23 18 29
18 5 26
3 8 24
3 19 24
19 3 23
5 18 23
23 8 23
3 5 22
16 7 22
5 3 21
3 18 21
8 23 20
7 16 20
18 3 17
7 18 17
8 7 15
18 7 15
7 8 14
30 16 14
5 8 13
18 8 13
3 7 12
7 5 12
5 7 12
7 3 12
13 3 12
8 18 12
3 13 11
16 30 11
8 5 9
16 3 9
3 16 9
19 18 6
18 19 6
3 11 5
20 23 5
8 30 5
11 3 4
18 16 4
16 18 4
20 18 4
24 5 4
18 20 4
11 7 3
13 8 3
5 24 3
16 8 3
3 10 2
7 11 2
7 13 2
5 13 2
3 15 2
23 5 2
19 7 2
23 20 2
7 30 2
30 8 2
30 18 2
3 36 2
36 3 2
1 2 1
2 3 1
3 4 1
4 5 1
3 6 1
6 7 1
7 9 1
9 8 1
10 5 1
7 12 1
12 11 1
11 8 1
13 14 1
14 13 1
13 5 1
8 13 1
15 3 1
15 16 1
16 17 1
17 18 1
16 20 1
5 21 1
21 18 1
5 16 1
18 22 1
22 16 1
5 23 1
23 24 1
23 25 1
25 23 1
23 26 1
26 18 1
18 27 1
27 3 1
5 28 1
28 19 1
3 21 1
21 5 1
5 29 1
29 20 1
7 20 1
8 16 1
3 31 1
31 18 1
23 30 1
18 32 1
32 7 1
30 29 1
29 19 1
23 19 1
19 33 1
33 18 1
19 23 1
18 31 1
31 19 1
19 30 1
30 7 1
23 34 1
34 3 1
10 35 1
35 3 1
8 37 1
37 8 1
3 38 1
