5 10 17
4 5 15
5 4 15
5 12 14
10 5 14
23 5 13
18 5 12
5 23 11
5 18 10
12 5 10
20 5 7
25 5 7
5 31 7
5 25 6
10 12 6
31 5 6
12 31 6
12 13 5
12 10 5
31 12 5
5 20 4
5 33 4
18 17 3
19 20 3
22 23 3
13 12 3
5 29 3
29 5 3
33 5 3
35 37 3
37 35 3
5 35 3
47 12 3
12 47 3
10 4 2
16 17 2
17 16 2
20 21 2
5 19 2
23 22 2
10 18 2
10 19 2
19 5 2
4 19 2
19 4 2
12 27 2
13 5 2
10 23 2
31 4 2
4 31 2
34 5 2
5 45 2
1 2 1
2 3 1
3 4 1
4 6 1
6 7 1
7 8 1
8 5 1
5 9 1
9 10 1
10 8 1
8 10 1
10 11 1
11 10 1
13 14 1
14 15 1
15 16 1
16 18 1
17 19 1
21 20 1
21 5 1
4 21 1
21 4 1
4 18 1
5 22 1
5 24 1
24 5 1
23 20 1
20 10 1
4 24 1
24 25 1
4 26 1
26 19 1
19 26 1
26 18 1
18 10 1
27 12 1
12 28 1
28 12 1
5 13 1
5 30 1
30 5 1
31 19 1
19 31 1
31 32 1
32 20 1
33 34 1
5 34 1
23 10 1
27 35 1
35 36 1
36 35 1
35 31 1
31 35 1
35 38 1
38 31 1
31 33 1
33 39 1
39 40 1
40 10 1
35 41 1
41 10 1
17 5 1
17 18 1
18 42 1
42 5 1
12 43 1
43 5 1
35 44 1
44 23 1
45 31 1
45 5 1
31 38 1
38 18 1
35 46 1
46 35 1
35 4 1
4 33 1
33 4 1
31 47 1
47 48 1
48 43 1
43 48 1
48 4 1
