5 10 85
12 5 84
10 5 83
5 12 82
5 16 21
16 5 20
12 10 12
10 12 12
10 11 9
11 5 9
14 12 9
11 10 8
5 11 8
5 15 8
5 14 8
15 5 7
12 14 6
13 5 6
14 5 6
5 13 5
15 10 4
17 18 4
17 5 4
22 11 4
11 22 4
5 3 3
9 5 3
12 13 3
10 15 3
10 17 3
16 10 3
12 16 3
16 12 3
5 17 3
12 18 3
18 5 3
3 5 2
6 5 2
5 9 2
13 12 2
13 15 2
15 12 2
14 13 2
10 16 2
13 14 2
17 10 2
11 17 2
18 17 2
23 24 2
24 23 2
26 12 2
12 26 2
26 17 2
17 26 2
1 2 1
2 3 1
3 2 1
2 4 1
4 2 1
2 5 1
3 6 1
5 6 1
5 7 1
7 8 1
8 9 1
10 13 1
10 14 1
18 10 1
5 19 1
19 13 1
5 20 1
20 12 1
5 8 1
8 5 1
5 21 1
21 5 1
12 17 1
18 12 1
5 18 1
18 22 1
10 18 1
18 11 1
11 12 1
12 11 1
17 11 1
22 23 1
23 25 1
25 18 1
18 26 1
26 5 1
5 26 1
