22 4 14
4 22 13
26 16 13
14 17 12
17 14 12
9 4 11
4 9 10
16 26 10
12 4 8
4 12 8
17 4 8
4 19 8
4 17 7
19 4 7
15 26 7
26 15 6
12 15 5
15 32 5
15 12 4
32 15 4
11 12 3
16 4 3
12 14 3
14 12 3
4 7 3
7 4 3
9 19 3
19 9 3
3 1 2
4 10 2
10 14 2
16 17 2
12 11 2
26 4 2
4 26 2
14 11 2
11 14 2
1 2 1
2 3 1
1 3 1
1 4 1
4 5 1
5 4 1
4 6 1
6 7 1
7 8 1
8 9 1
10 4 1
10 11 1
12 13 1
13 10 1
14 10 1
14 15 1
15 16 1
4 18 1
18 16 1
17 19 1
19 16 1
4 20 1
20 21 1
21 22 1
22 11 1
11 22 1
22 20 1
20 12 1
14 4 1
4 11 1
11 4 1
4 23 1
23 7 1
7 24 1
24 15 1
15 7 1
7 23 1
23 14 1
4 25 1
25 4 1
22 26 1
16 15 1
15 27 1
27 12 1
4 16 1
16 14 1
12 22 1
19 28 1
28 29 1
29 30 1
30 31 1
31 15 1
32 26 1
14 9 1
4 15 1
15 4 1
9 22 1
4 33 1
