12 14 80
14 12 76
12 11 58
11 12 58
21 22 57
22 21 55
14 17 43
17 14 41
17 12 38
12 17 30
14 21 25
12 22 25
12 16 24
12 20 24
20 12 24
22 12 24
16 12 22
11 21 18
21 11 18
12 21 18
21 14 17
21 12 17
12 18 15
18 12 14
26 12 14
12 26 14
16 14 12
13 14 11
21 17 11
24 12 11
14 13 10
26 16 10
12 24 9
26 14 9
14 16 7
16 13 7
23 12 7
12 23 7
16 26 7
14 15 6
13 16 6
14 19 6
12 19 6
10 12 5
19 12 5
17 21 5
22 16 5
13 26 5
20 26 5
17 26 5
14 26 5
12 10 4
12 13 4
17 15 4
15 17 4
17 16 4
19 14 4
19 17 4
17 22 4
22 14 4
14 22 4
16 22 4
16 11 4
13 21 4
21 13 4
26 13 4
26 20 4
8 9 3
9 8 3
15 16 3
13 17 3
16 17 3
15 14 3
11 17 3
16 21 3
21 16 3
11 16 3
16 24 3
13 25 3
13 12 3
25 26 3
16 20 3
10 11 2
11 10 2
15 13 2
17 13 2
17 19 2
22 11 2
22 17 2
25 13 2
20 18 2
18 20 2
20 16 2
20 17 2
26 17 2
17 20 2
20 14 2
14 20 2
11 18 2
1 2 1
2 3 1
3 4 1
4 5 1
5 6 1
6 7 1
7 8 1
8 10 1
12 9 1
9 12 1
13 15 1
16 15 1
14 11 1
18 17 1
11 19 1
19 11 1
19 18 1
18 14 1
21 23 1
23 14 1
18 16 1
24 16 1
22 13 1
26 27 1
27 26 1
12 25 1
26 25 1
25 12 1
17 25 1
22 26 1
11 26 1
26 11 1
26 18 1
18 11 1
18 28 1
