4 2 108
2 4 105
6 4 26
2 6 25
4 6 24
6 2 22
6 29 5
29 6 5
4 5 4
4 22 4
22 4 4
5 4 3
16 4 3
4 16 3
20 4 3
4 20 3
4 34 3
35 2 3
3 4 2
2 13 2
16 17 2
17 16 2
18 17 2
17 18 2
2 25 2
25 2 2
28 4 2
4 33 2
33 4 2
34 4 2
2 35 2
2 36 2
36 2 2
1 2 1
2 3 1
4 3 1
5 6 1
2 7 1
7 2 1
4 8 1
8 4 1
2 9 1
9 2 1
2 10 1
10 4 1
4 10 1
10 2 1
2 11 1
11 2 1
2 12 1
12 2 1
13 14 1
14 4 1
2 15 1
15 6 1
6 16 1
16 18 1
18 16 1
16 2 1
2 19 1
19 20 1
20 21 1
21 2 1
4 23 1
23 2 1
2 24 1
24 2 1
13 2 1
2 26 1
26 2 1
2 27 1
27 4 1
6 28 1
4 28 1
4 29 1
29 4 1
4 30 1
30 4 1
29 31 1
31 29 1
4 32 1
32 4 1
6 13 1
13 28 1
28 6 1
34 35 1
4 37 1
37 2 1
2 37 1
37 4 1
6 21 1
21 4 1
2 38 1
38 2 1
