9 11 49
11 9 43
24 11 31
11 24 31
3 11 30
11 3 28
24 3 19
11 5 18
3 5 17
5 3 17
3 24 16
11 4 14
6 3 13
4 11 13
3 9 12
12 13 12
5 11 12
24 9 12
13 12 11
5 6 10
6 5 9
3 6 8
9 3 8
18 24 8
9 24 8
12 11 7
4 9 7
9 6 6
11 12 6
11 13 6
15 11 6
27 11 6
9 4 6
13 11 5
3 18 5
18 3 5
5 9 5
15 5 5
11 27 5
9 5 4
5 15 4
11 18 4
5 4 3
6 9 3
17 11 3
5 18 3
22 21 3
11 15 3
27 4 3
24 18 3
21 24 3
4 24 3
3 4 2
4 5 2
4 3 2
4 6 2
10 11 2
11 10 2
5 16 2
11 17 2
11 21 2
21 22 2
3 23 2
23 24 2
4 27 2
24 27 2
24 4 2
18 9 2
9 18 2
6 15 2
1 2 1
2 3 1
6 4 1
3 7 1
7 3 1
3 8 1
8 6 1
6 10 1
10 12 1
12 14 1
14 12 1
3 15 1
5 12 1
13 5 1
16 5 1
16 3 1
3 17 1
17 6 1
18 19 1
19 3 1
18 20 1
20 18 1
18 17 1
21 11 1
11 22 1
22 23 1
23 18 1
24 23 1
23 3 1
6 12 1
12 9 1
9 15 1
13 15 1
11 6 1
11 25 1
25 11 1
5 26 1
26 5 1
27 9 1
21 28 1
28 24 1
9 22 1
22 24 1
24 22 1
22 29 1
29 28 1
28 22 1
24 28 1
28 18 1
18 21 1
4 18 1
18 4 1
9 21 1
3 30 1
30 11 1
18 11 1
24 31 1
31 32 1
32 31 1
31 18 1
18 33 1
33 34 1
34 15 1
24 5 1
15 24 1
15 6 1
5 27 1
