6 1 68
1 6 66
1 15 48
15 1 46
6 15 28
15 6 27
1 9 19
9 6 15
8 1 15
9 1 15
1 8 13
15 9 13
1 2 11
2 1 10
9 15 10
6 8 9
1 5 9
5 1 9
6 9 8
1 10 6
8 6 6
6 5 6
15 5 6
11 1 5
10 15 5
5 15 5
5 6 4
8 9 4
8 5 4
1 11 4
10 1 4
11 8 4
5 8 4
10 6 4
5 9 4
15 10 4
5 11 3
8 11 3
6 12 3
8 10 3
9 10 3
15 8 3
8 15 3
9 5 3
2 7 2
7 2 2
5 10 2
10 8 2
10 5 2
12 1 2
9 8 2
2 3 1
3 2 1
2 4 1
4 2 1
2 5 1
10 12 1
12 10 1
11 5 1
8 13 1
13 1 1
12 6 1
9 13 1
13 9 1
10 14 1
14 8 1
6 11 1
11 6 1
10 9 1
5 16 1
16 8 1
6 10 1
6 17 1
17 6 1
