8 5 41
5 8 38
10 8 17
8 2 16
43 8 16
5 43 15
43 5 15
8 10 14
8 43 13
2 8 12
5 10 9
10 5 8
28 8 7
3 8 6
27 8 6
5 9 5
9 5 5
2 10 5
3 10 5
2 3 4
8 3 4
8 27 4
5 28 4
4 5 3
5 2 3
5 3 3
3 5 3
10 3 3
8 18 3
5 6 2
18 8 2
5 20 2
20 5 2
5 21 2
21 5 2
8 9 2
9 8 2
8 12 2
12 10 2
27 5 2
8 30 2
8 31 2
28 30 2
30 28 2
8 45 2
46 43 2
48 43 2
8 48 2
43 28 2
1 2 1
3 4 1
6 7 1
7 4 1
5 4 1
6 5 1
3 2 1
2 11 1
11 12 1
12 8 1
5 13 1
13 5 1
10 14 1
14 2 1
2 15 1
15 16 1
16 5 1
8 17 1
17 18 1
8 19 1
19 8 1
18 22 1
22 8 1
2 5 1
9 23 1
23 9 1
10 24 1
24 3 1
8 25 1
25 3 1
8 26 1
26 5 1
12 11 1
11 5 1
10 27 1
28 5 1
28 29 1
29 8 1
8 28 1
30 8 1
31 30 1
30 27 1
30 5 1
28 27 1
5 27 1
31 8 1
5 30 1
30 10 1
10 30 1
30 12 1
5 32 1
32 33 1
33 28 1
10 34 1
34 31 1
31 35 1
35 28 1
8 36 1
36 28 1
8 37 1
37 38 1
38 8 1
5 39 1
39 5 1
5 40 1
40 41 1
41 42 1
42 43 1
43 44 1
44 43 1
45 8 1
45 46 1
8 46 1
43 47 1
47 43 1
5 48 1
48 8 1
8 49 1
49 43 1
43 50 1
50 5 1
10 51 1
51 17 1
17 8 1
10 2 1
18 2 1
10 12 1
12 52 1
52 53 1
53 54 1
54 12 1
12 9 1
9 55 1
55 5 1
5 56 1
56 57 1
57 22 1
22 58 1
58 59 1
