10 8 16
16 8 16
5 10 15
10 5 15
8 16 15
8 10 14
8 9 13
7 8 11
5 8 11
8 5 10
9 8 9
16 10 9
10 16 9
8 7 8
9 10 8
20 8 8
8 20 8
8 31 8
10 9 7
12 10 7
31 8 7
4 5 6
5 4 6
9 7 6
10 12 6
8 30 6
30 5 6
10 4 5
4 10 5
14 8 5
7 9 4
8 14 4
6 5 3
30 8 3
5 30 3
6 30 3
15 10 2
10 15 2
10 30 2
30 16 2
16 6 2
30 6 2
30 4 2
4 30 2
38 39 2
1 2 1
2 3 1
3 4 1
5 6 1
6 7 1
9 6 1
5 9 1
9 11 1
11 5 1
5 12 1
10 13 1
13 14 1
8 15 1
15 7 1
7 10 1
10 7 1
9 16 1
16 4 1
4 17 1
17 5 1
5 18 1
18 10 1
16 19 1
19 20 1
20 10 1
10 21 1
21 10 1
10 22 1
22 8 1
5 23 1
23 10 1
10 14 1
14 11 1
11 24 1
24 25 1
25 26 1
26 9 1
7 27 1
27 10 1
8 12 1
12 28 1
28 6 1
6 12 1
12 29 1
29 30 1
30 10 1
31 32 1
32 31 1
31 33 1
33 31 1
31 34 1
34 5 1
30 35 1
35 5 1
5 36 1
36 11 1
11 6 1
5 37 1
37 16 1
4 6 1
6 10 1
5 16 1
10 6 1
6 8 1
30 12 1
12 30 1
5 38 1
39 38 1
39 40 1
40 39 1
