6 3 31
3 6 29
3 8 18
8 3 17
11 6 12
3 5 11
6 11 11
3 4 10
4 3 10
5 3 10
3 29 10
29 3 10
35 3 8
16 3 7
3 35 7
11 3 6
3 11 6
3 16 6
5 6 5
8 7 5
7 8 5
6 5 4
23 24 4
3 24 4
24 3 4
5 7 3
6 12 3
17 6 3
24 23 3
3 23 3
7 5 2
5 8 2
8 5 2
7 3 2
6 10 2
10 6 2
12 6 2
12 11 2
13 14 2
14 13 2
8 6 2
6 17 2
8 11 2
11 8 2
11 21 2
21 11 2
24 11 2
3 25 2
26 3 2
30 31 2
23 16 2
11 37 2
38 3 2
3 44 2
44 3 2
1 2 1
2 3 1
3 7 1
6 9 1
9 6 1
11 12 1
3 13 1
14 6 1
6 14 1
13 11 1
11 15 1
15 3 1
3 15 1
15 16 1
16 17 1
17 3 1
3 17 1
6 18 1
18 19 1
19 18 1
18 6 1
3 20 1
20 18 1
18 11 1
6 8 1
16 5 1
5 22 1
22 5 1
11 23 1
23 11 1
11 5 1
5 11 1
11 24 1
25 3 1
3 26 1
26 11 1
11 26 1
25 27 1
27 28 1
28 26 1
3 30 1
31 30 1
31 16 1
3 32 1
32 5 1
5 23 1
24 22 1
22 16 1
16 11 1
3 33 1
33 34 1
34 3 1
24 16 1
16 36 1
36 24 1
16 24 1
23 3 1
37 11 1
11 38 1
3 39 1
39 3 1
37 40 1
40 39 1
39 11 1
11 39 1
39 41 1
41 38 1
38 37 1
37 38 1
11 42 1
42 3 1
3 42 1
42 24 1
24 35 1
6 43 1
43 3 1
