3 7 44
7 3 40
2 3 23
3 27 22
27 3 22
6 3 19
3 6 18
3 2 16
18 3 10
3 18 9
7 2 6
2 6 5
6 2 5
36 2 5
2 36 5
5 3 4
12 7 4
2 7 4
21 7 4
7 21 4
23 7 4
25 3 4
3 25 4
27 34 4
8 7 3
7 10 3
3 12 3
7 12 3
3 16 3
16 2 3
7 18 3
7 23 3
34 27 3
18 25 3
6 7 3
7 6 3
37 27 3
27 37 3
3 5 2
7 8 2
3 8 2
8 3 2
3 19 2
19 2 2
2 19 2
3 20 2
7 25 2
16 7 2
25 18 2
1 2 1
3 4 1
4 5 1
7 9 1
9 8 1
10 7 1
3 11 1
11 3 1
7 13 1
13 14 1
14 13 1
13 2 1
10 2 1
2 15 1
15 7 1
2 16 1
2 17 1
17 16 1
3 17 1
17 3 1
19 17 1
17 2 1
20 2 1
20 3 1
3 21 1
21 3 1
18 7 1
10 3 1
12 22 1
22 23 1
7 24 1
24 7 1
7 16 1
19 3 1
16 3 1
25 7 1
25 2 1
2 26 1
26 2 1
3 28 1
28 27 1
27 5 1
2 29 1
29 3 1
12 14 1
14 30 1
30 31 1
31 32 1
32 33 1
33 31 1
31 27 1
34 3 1
18 35 1
35 18 1
25 6 1
3 36 1
36 3 1
27 6 1
6 37 1
37 38 1
38 34 1
34 38 1
38 27 1
