14 8 28
8 14 25
1 2 24
2 1 21
8 22 19
2 6 18
6 2 18
22 8 18
6 18 16
18 6 16
21 14 13
14 21 12
14 2 11
2 14 11
5 6 7
6 5 7
8 2 6
2 8 6
2 12 6
8 6 5
12 2 5
6 7 3
7 6 3
8 9 3
9 8 3
11 10 3
6 1 3
6 8 3
8 16 3
2 3 2
3 2 2
7 5 2
5 7 2
10 11 2
8 1 2
1 6 2
1 14 2
15 8 2
16 8 2
6 17 2
17 6 2
22 23 2
8 21 2
14 24 2
24 14 2
2 4 1
4 5 1
5 8 1
8 10 1
10 9 1
9 11 1
10 8 1
12 6 1
1 8 1
6 13 1
13 14 1
14 1 1
8 15 1
16 15 1
6 19 1
19 6 1
17 19 1
19 18 1
18 17 1
6 20 1
20 14 1
23 22 1
23 8 1
21 18 1
18 8 1
14 25 1
25 1 1
2 26 1
26 2 1
