5 4 38
4 5 30
9 4 12
4 9 11
4 13 9
4 15 9
13 4 8
15 4 8
3 4 7
4 3 6
4 20 6
5 15 6
15 5 6
13 9 5
9 5 4
10 15 4
4 17 4
20 5 4
9 10 3
15 10 3
4 8 3
8 4 3
5 9 3
9 13 3
20 4 3
4 28 3
10 5 2
11 5 2
5 13 2
4 14 2
17 4 2
14 4 2
10 9 2
15 9 2
26 4 2
28 21 2
1 2 1
2 3 1
3 5 1
5 3 1
3 6 1
6 7 1
7 8 1
8 9 1
4 11 1
11 12 1
12 11 1
5 11 1
9 14 1
14 13 1
9 15 1
14 10 1
5 16 1
16 4 1
8 18 1
18 14 1
10 19 1
19 10 1
8 5 1
5 8 1
17 8 1
17 5 1
5 20 1
15 21 1
21 15 1
9 22 1
22 5 1
13 8 1
8 20 1
20 9 1
4 10 1
15 20 1
20 15 1
5 23 1
23 5 1
13 5 1
15 24 1
24 5 1
5 25 1
25 5 1
4 26 1
4 27 1
27 4 1
14 26 1
28 4 1
21 17 1
17 26 1
26 14 1
21 4 1
4 29 1
29 3 1
4 30 1
30 31 1
31 3 1
