2 17 28
17 2 25
8 2 24
2 8 23
2 3 16
3 2 13
5 2 11
2 5 10
23 2 9
7 8 8
2 23 8
2 25 8
8 7 7
8 11 6
11 8 6
25 2 6
8 20 5
10 2 4
20 8 4
3 4 3
4 3 3
2 10 3
15 2 3
17 24 3
24 17 3
25 17 3
2 28 3
28 2 3
7 2 2
2 11 2
2 13 2
13 2 2
2 7 2
17 18 2
18 17 2
17 23 2
17 25 2
1 2 1
3 5 1
2 6 1
6 5 1
3 7 1
7 9 1
9 2 1
5 10 1
11 7 1
11 2 1
8 3 1
2 12 1
12 2 1
2 14 1
14 15 1
15 8 1
7 16 1
16 11 1
11 16 1
16 8 1
18 2 1
2 18 1
17 19 1
19 2 1
20 17 1
3 21 1
21 22 1
22 2 1
23 17 1
17 21 1
21 15 1
24 2 1
2 24 1
25 15 1
2 15 1
17 3 1
3 26 1
26 2 1
3 17 1
17 27 1
27 2 1
17 7 1
