1 11 36
11 1 34
18 1 15
1 18 15
9 1 14
8 5 12
11 3 12
1 9 12
3 11 11
1 7 9
1 3 9
3 1 9
7 1 8
11 19 8
1 5 7
5 8 7
19 11 7
18 11 6
11 18 6
22 11 6
11 45 6
45 11 6
5 1 5
11 22 5
9 7 5
17 1 5
11 17 4
17 11 4
1 17 4
28 11 4
7 9 4
3 4 3
4 1 3
7 3 3
4 3 3
3 9 3
11 20 3
20 11 3
11 28 3
34 11 3
5 11 3
13 7 3
1 2 2
6 7 2
3 8 2
5 9 2
7 4 2
5 3 2
11 13 2
13 11 2
11 14 2
11 21 2
18 24 2
11 27 2
11 29 2
29 11 2
11 30 2
11 34 2
7 17 2
8 7 2
7 13 2
50 11 2
5 51 2
5 52 2
11 54 2
54 11 2
11 55 2
2 3 1
4 5 1
5 4 1
1 6 1
9 4 1
3 7 1
9 3 1
8 1 1
9 8 1
1 10 1
10 11 1
11 10 1
10 12 1
12 11 1
14 15 1
15 11 1
11 16 1
16 1 1
17 18 1
18 9 1
9 11 1
11 7 1
21 22 1
11 6 1
6 1 1
9 23 1
23 24 1
24 18 1
24 6 1
6 11 1
11 25 1
25 26 1
26 1 1
27 1 1
2 1 1
30 11 1
30 1 1
1 31 1
31 9 1
1 24 1
24 9 1
9 28 1
11 32 1
32 9 1
11 33 1
33 34 1
11 35 1
35 22 1
22 36 1
36 7 1
9 37 1
37 1 1
7 38 1
38 8 1
8 9 1
7 8 1
3 5 1
3 39 1
39 11 1
1 4 1
1 40 1
40 41 1
41 42 1
42 43 1
43 44 1
44 17 1
27 11 1
11 46 1
46 47 1
47 11 1
11 48 1
48 11 1
19 14 1
14 8 1
7 6 1
7 5 1
17 28 1
28 3 1
1 13 1
13 3 1
3 13 1
1 49 1
49 3 1
3 50 1
50 1 1
1 50 1
11 8 1
51 8 1
51 5 1
52 8 1
52 5 1
24 11 1
14 18 1
21 11 1
3 53 1
53 7 1
4 50 1
55 56 1
56 11 1
