7 15 38
15 7 34
3 7 31
7 3 30
16 7 24
7 16 21
7 4 17
4 7 16
17 7 14
7 17 12
7 14 11
14 7 10
16 15 8
15 16 8
27 7 8
7 27 7
6 7 6
7 6 5
17 15 4
17 16 4
7 18 4
16 17 4
15 21 4
21 7 4
3 9 3
9 3 3
7 10 3
10 7 3
15 17 3
18 7 3
7 19 3
14 4 3
16 25 3
3 4 2
7 8 2
7 11 2
11 7 2
7 13 2
15 18 2
19 17 2
19 7 2
7 21 2
4 14 2
4 16 2
25 16 2
1 2 1
2 3 1
4 5 1
5 6 1
8 9 1
9 8 1
8 3 1
11 12 1
12 7 1
13 7 1
13 11 1
15 14 1
14 16 1
18 15 1
18 16 1
18 17 1
17 19 1
7 20 1
20 17 1
21 15 1
21 16 1
7 22 1
22 14 1
4 17 1
9 7 1
16 23 1
23 16 1
8 7 1
15 3 1
16 24 1
24 7 1
25 26 1
26 15 1
7 25 1
25 27 1
27 15 1
17 27 1
14 17 1
15 9 1
4 15 1
15 4 1
17 4 1
4 3 1
