5 4 45
4 5 43
7 4 30
4 7 29
21 4 20
4 21 19
11 4 12
5 21 11
4 11 10
21 5 8
21 11 8
34 31 8
10 5 7
31 34 7
5 7 6
5 11 6
19 5 6
4 10 5
5 10 5
5 19 5
7 5 4
20 21 4
22 4 4
11 5 4
21 16 4
31 5 4
4 18 4
7 11 4
18 21 4
10 4 3
4 20 3
20 5 3
18 4 3
16 5 3
5 34 3
5 49 3
11 21 3
16 17 2
5 24 2
25 24 2
19 20 2
20 16 2
5 31 2
4 31 2
34 5 2
7 21 2
17 4 2
5 16 2
40 41 2
41 5 2
21 34 2
34 21 2
11 7 2
43 4 2
20 4 2
4 46 2
46 21 2
11 48 2
49 5 2
49 26 2
21 18 2
19 21 2
16 21 2
30 4 2
17 49 2
49 17 2
62 63 2
67 68 2
72 7 2
1 2 1
2 1 1
1 3 1
3 4 1
5 6 1
6 5 1
7 8 1
8 7 1
7 9 1
9 10 1
11 10 1
10 7 1
10 12 1
12 13 1
13 14 1
14 15 1
15 12 1
12 14 1
14 16 1
17 5 1
5 18 1
18 5 1
19 4 1
21 22 1
7 23 1
23 5 1
24 25 1
24 13 1
13 26 1
26 4 1
11 27 1
27 16 1
16 20 1
5 17 1
17 18 1
4 19 1
16 4 1
11 28 1
28 5 1
5 28 1
28 29 1
29 20 1
20 19 1
16 19 1
16 30 1
30 5 1
4 22 1
31 20 1
5 20 1
21 26 1
26 32 1
32 5 1
7 33 1
33 4 1
4 34 1
34 25 1
25 31 1
5 35 1
35 5 1
5 25 1
24 7 1
11 34 1
31 35 1
35 7 1
7 36 1
36 25 1
25 7 1
4 37 1
37 5 1
4 38 1
38 4 1
31 39 1
39 17 1
24 5 1
4 16 1
4 40 1
5 40 1
16 24 1
24 4 1
18 17 1
17 21 1
21 42 1
42 5 1
21 31 1
31 7 1
7 43 1
4 44 1
44 20 1
20 31 1
34 1 1
1 34 1
34 45 1
45 4 1
21 47 1
47 7 1
48 11 1
48 13 1
13 22 1
49 4 1
4 49 1
26 5 1
4 50 1
50 20 1
18 19 1
21 36 1
36 37 1
37 4 1
4 51 1
51 4 1
4 52 1
52 18 1
18 16 1
11 53 1
53 21 1
21 54 1
54 7 1
21 30 1
5 55 1
55 4 1
4 56 1
56 22 1
4 23 1
23 21 1
21 14 1
14 20 1
11 16 1
16 18 1
18 11 1
21 57 1
57 5 1
5 58 1
58 59 1
59 16 1
16 59 1
59 17 1
17 46 1
46 19 1
21 19 1
5 60 1
60 5 1
5 61 1
61 21 1
11 46 1
21 20 1
11 62 1
63 7 1
7 64 1
64 7 1
7 59 1
59 49 1
26 11 1
11 18 1
21 65 1
65 19 1
19 13 1
13 66 1
66 4 1
4 67 1
68 67 1
68 4 1
4 69 1
69 13 1
13 70 1
70 21 1
46 18 1
4 43 1
4 57 1
57 11 1
4 48 1
48 4 1
4 64 1
64 71 1
71 62 1
63 72 1
7 30 1
30 72 1
72 4 1
4 30 1
30 48 1
48 34 1
34 72 1
4 63 1
63 71 1
71 30 1
4 62 1
62 73 1
73 21 1
4 74 1
74 7 1
