4 13 89
13 4 89
31 4 41
4 31 41
4 19 36
19 4 35
23 4 28
4 23 27
8 4 22
4 7 20
7 4 20
16 4 20
4 8 19
4 16 19
3 4 18
4 3 17
32 13 17
13 32 16
26 4 14
31 29 14
21 4 13
4 26 13
4 21 12
29 31 12
4 6 9
6 4 9
4 1 9
1 4 9
4 27 8
27 4 7
6 7 6
7 6 6
13 8 5
1 2 4
1 3 4
3 1 4
8 13 4
4 29 4
2 1 3
4 10 3
18 4 3
13 1 3
13 6 3
29 30 3
30 31 3
3 5 2
5 3 2
10 4 2
4 12 2
12 4 2
4 18 2
4 20 2
20 4 2
4 24 2
24 4 2
1 13 2
25 4 2
4 25 2
7 13 2
29 13 2
29 4 2
2 3 1
4 9 1
9 8 1
10 11 1
11 4 1
4 14 1
14 4 1
4 15 1
15 16 1
6 8 1
13 7 1
4 17 1
17 18 1
19 21 1
4 22 1
22 23 1
1 25 1
25 26 1
27 13 1
4 28 1
28 13 1
6 13 1
31 7 1
7 32 1
32 7 1
6 33 1
33 32 1
32 34 1
34 32 1
13 33 1
33 29 1
