2 16 79
16 2 77
3 12 43
12 3 42
12 18 36
18 12 35
2 3 24
3 2 23
2 12 19
16 19 17
12 2 17
19 16 16
10 3 13
3 10 13
19 2 11
8 3 10
3 8 10
2 19 10
2 18 8
18 2 7
5 6 6
18 16 6
6 5 4
3 5 4
16 18 4
3 4 3
4 3 3
23 24 3
4 5 2
5 3 2
5 4 2
6 3 2
16 17 2
17 2 2
16 22 2
24 16 2
16 24 2
1 2 1
6 4 1
4 6 1
3 7 1
7 8 1
8 9 1
9 10 1
10 11 1
11 3 1
12 13 1
13 14 1
14 12 1
12 15 1
15 16 1
17 16 1
16 15 1
15 2 1
2 17 1
12 16 1
16 12 1
12 20 1
20 21 1
21 2 1
22 2 1
22 23 1
24 23 1
24 2 1
2 23 1
24 22 1
22 24 1
24 25 1
25 26 1
