4 48 25
48 4 22
4 5 14
55 33 14
33 55 13
5 4 12
80 48 9
1 4 8
48 80 8
5 1 5
4 1 5
1 5 5
19 5 5
5 19 5
13 4 5
80 4 5
33 5 4
4 80 4
5 9 3
21 5 3
1 33 3
33 1 3
5 33 3
48 87 3
33 4 3
4 33 3
5 8 2
9 10 2
10 9 2
9 1 2
10 5 2
19 1 2
5 21 2
5 32 2
40 5 2
5 41 2
55 48 2
66 55 2
33 66 2
70 55 2
4 63 2
51 4 2
48 13 2
87 33 2
87 48 2
1 2 1
2 3 1
3 4 1
5 6 1
6 5 1
5 7 1
7 5 1
8 5 1
8 1 1
1 9 1
1 10 1
9 11 1
11 9 1
9 12 1
12 13 1
13 8 1
8 10 1
9 14 1
14 13 1
13 1 1
1 15 1
15 16 1
16 5 1
5 17 1
17 18 1
18 19 1
1 19 1
19 20 1
20 19 1
1 21 1
21 22 1
22 13 1
13 21 1
21 23 1
23 21 1
5 24 1
24 25 1
25 18 1
18 21 1
21 26 1
26 1 1
1 27 1
27 28 1
28 29 1
29 30 1
30 31 1
31 13 1
13 5 1
32 33 1
33 34 1
34 18 1
18 35 1
35 5 1
5 36 1
36 5 1
5 37 1
37 18 1
18 38 1
38 33 1
5 39 1
39 40 1
41 42 1
42 5 1
41 5 1
33 43 1
43 5 1
5 38 1
38 39 1
39 1 1
5 40 1
32 5 1
5 44 1
44 45 1
45 46 1
46 1 1
1 13 1
13 47 1
47 33 1
1 48 1
4 49 1
49 50 1
50 51 1
51 48 1
48 52 1
52 50 1
50 4 1
4 53 1
53 54 1
54 55 1
55 4 1
4 56 1
56 55 1
1 55 1
55 57 1
57 55 1
4 58 1
58 4 1
4 59 1
59 60 1
60 61 1
61 48 1
48 51 1
51 62 1
62 63 1
63 64 1
64 65 1
65 55 1
1 66 1
55 67 1
67 33 1
55 68 1
68 55 1
55 69 1
69 55 1
33 70 1
55 71 1
71 1 1
55 70 1
55 72 1
72 32 1
32 55 1
55 73 1
73 55 1
55 74 1
74 1 1
63 4 1
63 51 1
4 75 1
75 76 1
76 13 1
4 77 1
77 4 1
4 78 1
78 79 1
79 13 1
1 81 1
81 80 1
80 82 1
82 80 1
80 83 1
83 80 1
48 84 1
84 51 1
51 80 1
80 85 1
85 4 1
80 86 1
86 87 1
87 80 1
13 80 1
80 13 1
13 88 1
88 1 1
1 89 1
89 90 1
90 13 1
13 91 1
91 80 1
48 92 1
92 1 1
48 50 1
50 48 1
4 93 1
93 4 1
4 70 1
70 4 1
48 94 1
94 48 1
4 51 1
4 95 1
95 13 1
48 96 1
96 4 1
4 97 1
97 98 1
98 99 1
99 1 1
33 87 1
66 90 1
90 78 1
78 33 1
33 13 1
13 100 1
100 48 1
48 70 1
70 48 1
48 101 1
101 1 1
48 102 1
102 4 1
4 102 1
102 103 1
103 13 1
4 104 1
104 13 1
