2 5 91
5 2 89
2 21 50
21 2 46
16 2 44
2 16 41
6 2 22
2 6 19
2 12 15
12 2 15
17 2 14
2 17 13
20 2 10
5 16 10
23 2 10
2 20 9
16 5 9
2 23 9
3 2 8
2 10 8
25 27 8
2 3 7
10 2 7
27 25 6
27 2 6
2 27 6
2 4 5
4 2 5
2 9 5
27 23 5
32 2 5
2 8 4
8 2 4
23 25 4
23 27 4
2 32 4
2 33 4
33 2 4
2 7 3
7 2 3
9 2 3
2 13 3
13 2 3
2 18 3
18 2 3
2 34 3
34 2 3
2 36 3
36 2 3
2 25 3
2 39 3
39 2 3
2 14 2
12 18 2
21 5 2
25 24 2
24 25 2
25 23 2
26 23 2
27 29 2
29 27 2
2 31 2
31 2 2
5 37 2
37 5 2
25 2 2
1 2 1
5 6 1
7 8 1
8 7 1
2 11 1
11 2 1
14 2 1
14 15 1
15 16 1
16 17 1
18 12 1
18 9 1
9 12 1
9 16 1
10 19 1
19 10 1
10 20 1
20 16 1
9 20 1
21 6 1
16 21 1
21 16 1
16 6 1
2 22 1
22 2 1
21 23 1
23 24 1
24 23 1
25 26 1
23 26 1
27 28 1
28 25 1
27 30 1
30 27 1
23 5 1
5 23 1
23 32 1
32 23 1
2 35 1
35 16 1
2 26 1
26 32 1
5 38 1
38 2 1
25 13 1
13 27 1
27 3 1
2 40 1
40 2 1
