2 5 91
5 2 90
2 22 50
22 2 46
16 2 44
2 16 42
6 2 22
2 6 19
2 21 16
21 2 16
2 12 15
12 2 15
16 5 15
5 16 15
17 2 14
2 17 13
20 2 10
24 2 10
2 20 9
2 24 9
3 2 8
2 10 8
26 28 8
2 3 7
10 2 7
28 26 6
28 2 6
2 28 6
2 4 5
4 2 5
2 9 5
28 24 5
33 2 5
2 8 4
8 2 4
24 26 4
24 28 4
2 33 4
2 34 4
34 2 4
2 7 3
7 2 3
9 2 3
2 13 3
13 2 3
2 18 3
18 2 3
2 35 3
35 2 3
2 37 3
37 2 3
26 2 3
2 26 3
2 40 3
40 2 3
2 14 2
12 18 2
22 5 2
26 25 2
25 26 2
26 24 2
27 24 2
28 30 2
30 28 2
2 32 2
32 2 2
5 38 2
38 5 2
1 2 1
5 6 1
7 8 1
8 7 1
2 11 1
11 2 1
14 2 1
14 15 1
15 16 1
16 17 1
18 12 1
18 9 1
9 12 1
9 16 1
10 19 1
19 10 1
10 20 1
20 16 1
9 20 1
22 6 1
16 22 1
22 16 1
16 6 1
2 23 1
23 2 1
22 24 1
24 25 1
25 24 1
26 27 1
24 27 1
28 29 1
29 26 1
28 31 1
31 28 1
24 5 1
5 24 1
24 33 1
33 24 1
2 36 1
36 16 1
2 27 1
27 33 1
5 39 1
39 26 1
26 13 1
13 28 1
28 3 1
2 41 1
41 2 1
