5 18 81
18 5 76
5 7 46
7 5 45
5 74 12
74 5 12
8 5 10
10 5 10
5 10 9
5 8 8
15 10 6
15 5 6
10 16 5
4 5 4
10 15 4
16 10 4
5 58 4
7 8 3
21 7 3
7 10 3
16 17 3
5 15 3
59 60 3
58 5 3
6 7 2
8 7 2
15 16 2
16 15 2
10 17 2
17 16 2
10 18 2
20 21 2
7 21 2
21 20 2
20 7 2
17 15 2
22 15 2
29 5 2
18 33 2
18 73 2
58 60 2
1 2 1
2 3 1
3 4 1
5 6 1
7 9 1
9 10 1
10 11 1
11 10 1
5 12 1
12 10 1
10 13 1
13 10 1
10 14 1
14 15 1
18 19 1
19 7 1
7 20 1
5 22 1
10 23 1
23 24 1
24 4 1
16 25 1
25 16 1
17 20 1
10 20 1
20 10 1
10 7 1
7 26 1
26 27 1
27 5 1
5 26 1
26 10 1
10 28 1
28 5 1
7 29 1
5 30 1
30 7 1
5 29 1
5 31 1
31 7 1
8 32 1
32 5 1
8 33 1
33 8 1
5 34 1
34 18 1
33 5 1
18 21 1
21 17 1
17 28 1
28 35 1
35 36 1
36 10 1
10 36 1
36 8 1
5 37 1
37 5 1
7 15 1
5 38 1
38 5 1
15 33 1
33 15 1
5 39 1
39 5 1
18 40 1
40 5 1
18 41 1
41 18 1
18 6 1
7 42 1
42 5 1
5 43 1
43 5 1
5 4 1
5 44 1
44 21 1
15 22 1
18 10 1
5 45 1
45 10 1
18 46 1
46 4 1
18 8 1
5 47 1
47 5 1
7 48 1
48 5 1
5 49 1
49 7 1
7 50 1
50 51 1
51 7 1
5 52 1
52 53 1
53 4 1
4 54 1
54 53 1
53 55 1
55 56 1
56 57 1
57 58 1
58 59 1
60 54 1
54 5 1
5 57 1
57 61 1
61 62 1
62 63 1
63 64 1
64 59 1
60 65 1
65 58 1
58 66 1
66 58 1
58 57 1
57 55 1
55 59 1
60 18 1
5 59 1
59 5 1
5 67 1
67 5 1
18 68 1
68 18 1
18 69 1
69 5 1
33 18 1
5 70 1
70 71 1
71 72 1
72 18 1
73 5 1
60 58 1
60 59 1
59 75 1
75 5 1
5 76 1
76 77 1
77 74 1
74 76 1
76 5 1
73 70 1
70 58 1
58 28 1
28 78 1
78 65 1
65 79 1
79 55 1
55 80 1
80 18 1
5 65 1
65 5 1
5 73 1
73 81 1
81 82 1
82 83 1
