5 3 55
3 5 53
3 10 30
10 3 26
5 10 19
10 5 18
10 11 14
5 11 12
16 3 12
11 10 11
3 16 10
11 3 9
3 4 7
4 5 7
11 5 7
17 20 6
3 11 4
5 16 4
16 17 4
17 16 4
23 5 4
20 15 3
16 5 3
15 17 3
20 5 3
20 17 3
5 23 3
11 17 3
5 4 2
4 3 2
10 12 2
11 15 2
16 18 2
19 20 2
21 20 2
5 20 2
20 3 2
20 16 2
15 16 2
3 15 2
1 2 1
2 3 1
5 6 1
6 3 1
3 7 1
7 8 1
8 9 1
9 5 1
5 9 1
9 7 1
7 3 1
12 5 1
12 10 1
10 13 1
13 14 1
14 3 1
15 5 1
18 19 1
15 19 1
19 16 1
11 16 1
16 11 1
15 20 1
15 21 1
20 21 1
3 20 1
16 20 1
16 15 1
16 22 1
22 15 1
15 3 1
17 15 1
5 24 1
24 17 1
18 16 1
20 11 1
17 11 1
17 5 1
17 23 1
11 20 1
20 24 1
24 20 1
20 19 1
3 19 1
19 5 1
3 25 1
25 26 1
26 11 1
