7 8 39
8 7 38
11 12 21
12 11 18
8 12 18
15 8 16
8 15 16
12 8 16
13 8 15
8 13 15
7 9 12
8 20 10
20 4 10
8 27 10
27 8 10
15 11 10
11 15 10
9 7 10
9 17 9
20 8 9
8 21 9
21 8 9
17 9 9
4 20 8
4 8 8
20 11 6
8 4 6
4 5 5
13 5 5
20 26 5
5 4 4
5 13 4
17 7 4
8 17 4
19 8 4
22 11 4
11 22 4
11 20 4
21 13 4
14 8 4
26 20 4
8 23 3
12 13 3
20 7 3
26 11 3
13 21 3
15 21 3
21 15 3
15 7 3
7 13 3
8 14 3
10 11 2
13 15 2
7 17 2
17 8 2
7 4 2
18 4 2
4 11 2
11 4 2
22 10 2
23 21 2
23 8 2
13 24 2
24 13 2
13 12 2
13 20 2
7 20 2
25 18 2
18 25 2
11 26 2
13 28 2
28 13 2
13 7 2
1 2 1
2 3 1
3 4 1
5 6 1
6 5 1
5 7 1
9 10 1
12 10 1
10 13 1
5 14 1
14 13 1
8 5 1
5 15 1
15 5 1
5 16 1
16 7 1
4 18 1
11 18 1
4 19 1
21 7 1
7 22 1
10 22 1
11 7 1
7 6 1
6 8 1
21 23 1
20 19 1
15 13 1
7 25 1
25 20 1
26 8 1
9 11 1
12 28 1
28 15 1
15 20 1
4 15 1
15 4 1
12 29 1
29 15 1
15 9 1
9 8 1
8 19 1
8 22 1
22 20 1
4 21 1
7 15 1
7 19 1
12 14 1
12 20 1
11 28 1
28 26 1
26 28 1
28 14 1
14 12 1
7 14 1
14 20 1
11 21 1
21 12 1
12 7 1
7 30 1
30 7 1
8 11 1
13 25 1
25 31 1
31 25 1
25 15 1
7 11 1
11 13 1
13 4 1
4 13 1
13 19 1
19 7 1
8 9 1
9 21 1
21 26 1
20 32 1
32 7 1
