2 36 49
7 2 47
36 2 47
2 7 42
23 2 38
2 23 35
2 31 32
31 2 31
2 6 23
6 2 22
2 18 16
2 21 16
21 2 16
18 2 14
2 3 12
3 2 12
2 9 12
36 23 12
9 2 11
2 10 10
19 18 10
10 2 9
18 19 9
23 7 9
30 2 8
2 34 8
23 36 8
2 14 7
2 30 7
34 2 7
7 23 7
4 2 6
10 4 6
4 10 6
2 4 5
10 7 4
14 2 4
18 7 4
7 18 4
7 10 3
10 16 3
16 10 3
18 14 3
7 21 3
31 23 3
21 23 3
23 21 3
21 7 3
7 4 2
4 7 2
8 2 2
13 2 2
14 18 2
18 20 2
20 18 2
14 22 2
18 25 2
25 2 2
2 26 2
26 7 2
18 36 2
7 36 2
23 30 2
30 10 2
30 7 2
1 2 1
2 5 1
5 4 1
7 8 1
2 8 1
9 7 1
6 7 1
2 11 1
11 10 1
10 12 1
12 13 1
2 13 1
13 14 1
14 15 1
15 14 1
14 13 1
14 10 1
10 17 1
17 2 1
2 17 1
17 18 1
14 19 1
21 10 1
22 2 1
22 23 1
23 24 1
24 2 1
2 27 1
27 21 1
21 26 1
26 10 1
10 28 1
28 29 1
29 30 1
31 32 1
32 2 1
30 33 1
33 31 1
2 32 1
32 31 1
34 31 1
31 35 1
35 31 1
34 36 1
36 34 1
23 37 1
37 2 1
36 7 1
21 18 1
18 38 1
38 36 1
36 18 1
23 4 1
10 39 1
39 10 1
10 40 1
40 23 1
10 30 1
4 30 1
10 23 1
36 10 1
10 21 1
7 25 1
25 10 1
7 30 1
10 6 1
6 10 1
10 3 1
3 23 1
23 31 1
31 3 1
3 21 1
