18 3 62
3 18 60
3 9 16
9 3 15
22 3 15
3 22 12
11 3 11
3 14 11
3 11 10
14 3 10
19 18 9
4 3 8
18 19 8
30 9 8
9 30 7
3 30 7
3 4 6
13 3 6
30 3 6
3 13 5
2 3 3
3 10 3
3 15 3
15 3 3
3 2 2
10 3 2
3 12 2
12 3 2
11 13 2
14 13 2
14 11 2
13 14 2
3 19 2
19 3 2
18 21 2
21 18 2
18 22 2
3 27 2
27 3 2
29 3 2
18 9 2
30 18 2
3 33 2
33 30 2
35 30 2
1 2 1
3 5 1
5 6 1
6 4 1
3 7 1
7 4 1
3 8 1
8 9 1
10 11 1
13 11 1
3 16 1
16 17 1
17 18 1
19 20 1
20 19 1
18 23 1
23 3 1
3 24 1
24 3 1
9 25 1
25 26 1
26 3 1
9 22 1
27 22 1
22 27 1
3 28 1
28 29 1
3 29 1
9 31 1
31 30 1
9 18 1
9 19 1
3 31 1
31 3 1
30 22 1
22 18 1
3 32 1
32 3 1
33 3 1
30 34 1
34 33 1
9 35 1
30 35 1
3 36 1
36 9 1
3 37 1
37 18 1
18 13 1
14 18 1
18 14 1
11 14 1
13 18 1
