45 35 32
7 8 29
35 45 28
8 7 27
9 7 25
34 35 25
7 9 23
35 34 23
7 16 21
16 7 21
34 63 17
63 34 14
35 3 10
3 88 8
88 3 8
34 36 7
34 45 7
3 35 7
33 34 6
45 34 6
36 34 5
36 44 5
94 7 5
34 33 4
35 36 4
7 34 4
62 34 4
36 45 4
44 34 4
35 33 3
34 7 3
44 45 3
35 58 3
58 35 3
34 62 3
63 64 3
65 45 3
45 36 3
35 74 3
74 35 3
9 8 3
7 35 3
7 94 3
102 35 3
103 34 3
44 3 3
36 35 3
8 9 2
7 31 2
31 7 2
7 32 2
16 34 2
42 43 2
45 44 2
46 16 2
50 51 2
35 7 2
64 45 2
45 65 2
44 70 2
44 36 2
34 44 2
45 74 2
82 7 2
8 34 2
45 85 2
85 45 2
85 7 2
35 85 2
8 92 2
35 102 2
34 103 2
104 35 2
3 45 2
3 44 2
34 64 2
3 7 2
7 3 2
1 2 1
2 3 1
3 4 1
4 5 1
5 6 1
6 7 1
7 10 1
10 7 1
7 11 1
11 7 1
7 12 1
12 7 1
7 13 1
13 7 1
7 14 1
14 7 1
8 15 1
15 7 1
7 17 1
17 7 1
7 18 1
18 19 1
19 20 1
20 21 1
21 7 1
7 22 1
22 9 1
9 23 1
23 7 1
7 24 1
24 7 1
7 25 1
25 7 1
16 26 1
26 27 1
27 16 1
16 28 1
28 29 1
29 30 1
30 7 1
32 33 1
7 37 1
37 38 1
38 39 1
39 40 1
40 41 1
41 16 1
34 42 1
43 42 1
43 44 1
44 46 1
45 46 1
46 34 1
34 46 1
35 47 1
47 48 1
48 49 1
49 35 1
35 25 1
25 50 1
51 50 1
51 52 1
52 35 1
35 53 1
53 45 1
45 54 1
54 35 1
35 55 1
55 34 1
34 56 1
56 35 1
34 57 1
57 35 1
35 59 1
59 35 1
7 60 1
60 34 1
35 61 1
61 62 1
45 66 1
66 65 1
45 58 1
58 45 1
45 67 1
67 45 1
45 68 1
68 34 1
34 69 1
69 35 1
35 44 1
70 44 1
70 64 1
64 44 1
34 71 1
71 72 1
72 34 1
34 73 1
73 45 1
45 71 1
71 35 1
35 75 1
75 35 1
74 45 1
45 76 1
76 45 1
34 58 1
58 77 1
77 78 1
78 79 1
79 35 1
35 57 1
57 34 1
36 80 1
80 34 1
7 81 1
81 82 1
7 82 1
34 83 1
83 9 1
34 84 1
84 9 1
32 40 1
40 45 1
7 45 1
58 86 1
86 58 1
58 87 1
87 58 1
58 3 1
3 89 1
89 34 1
64 58 1
58 34 1
74 90 1
90 91 1
91 7 1
92 93 1
93 7 1
7 92 1
92 81 1
81 61 1
61 94 1
7 95 1
95 96 1
96 97 1
97 98 1
98 95 1
95 99 1
99 94 1
34 100 1
100 34 1
45 77 1
77 101 1
101 102 1
102 58 1
74 102 1
35 48 1
48 103 1
34 32 1
32 36 1
45 104 1
3 74 1
35 105 1
105 34 1
35 41 1
41 8 1
92 8 1
7 106 1
106 35 1
35 9 1
35 107 1
107 35 1
45 108 1
108 35 1
35 8 1
34 109 1
109 71 1
71 44 1
3 34 1
34 110 1
110 16 1
16 9 1
9 110 1
110 7 1
7 36 1
44 35 1
33 35 1
35 72 1
72 33 1
33 45 1
33 9 1
8 45 1
35 111 1
111 7 1
9 109 1
109 35 1
35 112 1
112 104 1
64 8 1
8 64 1
64 35 1
45 113 1
113 45 1
45 114 1
114 34 1
34 115 1
115 113 1
113 34 1
64 34 1
34 116 1
116 104 1
104 3 1
45 3 1
7 104 1
104 7 1
3 117 1
117 7 1
7 118 1
118 7 1
7 119 1
119 45 1
