2 6 46
3 2 45
2 3 40
6 2 39
6 8 31
8 6 29
8 3 24
3 8 21
13 8 18
6 3 16
3 6 15
21 13 14
8 13 13
13 2 13
13 21 13
2 13 13
15 11 12
7 8 11
11 15 10
23 2 10
8 7 9
2 23 9
8 10 7
2 8 6
14 2 6
2 14 6
9 8 5
10 8 5
8 2 5
16 2 5
2 16 5
13 26 5
2 12 5
12 2 5
14 43 5
8 9 4
10 7 4
2 11 4
3 23 4
2 21 4
26 13 4
11 2 4
8 16 4
43 14 4
23 3 3
21 2 3
2 15 3
16 3 3
3 15 3
7 2 2
12 11 2
2 19 2
6 13 2
2 24 2
24 2 2
7 10 2
6 16 2
3 21 2
16 8 2
13 16 2
16 13 2
34 3 2
15 3 2
26 2 2
1 2 1
3 4 1
4 5 1
5 2 1
6 7 1
2 7 1
8 11 1
11 12 1
11 8 1
8 14 1
15 16 1
16 17 1
17 3 1
3 18 1
18 2 1
19 6 1
2 20 1
20 10 1
10 9 1
21 22 1
22 3 1
21 25 1
25 13 1
13 22 1
22 13 1
2 10 1
3 27 1
27 13 1
13 28 1
28 2 1
10 29 1
29 6 1
11 30 1
30 2 1
11 3 1
14 31 1
31 2 1
16 6 1
13 3 1
6 32 1
32 8 1
8 21 1
8 33 1
33 8 1
3 13 1
8 34 1
3 34 1
15 8 1
8 15 1
15 13 1
8 35 1
35 8 1
2 36 1
36 37 1
37 21 1
21 17 1
17 21 1
19 2 1
8 38 1
38 2 1
6 26 1
21 3 1
21 8 1
8 39 1
39 40 1
40 12 1
11 13 1
8 31 1
31 41 1
41 8 1
8 42 1
42 14 1
