1 7 149
7 1 141
22 7 16
7 22 13
22 1 13
1 22 12
98 7 11
25 1 9
7 98 9
1 25 8
57 7 7
7 28 6
7 57 6
1 87 6
1 20 5
27 7 5
28 7 5
7 66 5
66 7 5
1 72 5
72 1 5
73 7 5
7 96 5
87 1 5
1 3 4
7 27 4
7 67 4
1 69 4
69 1 4
7 73 4
7 88 4
96 7 4
103 1 4
34 7 4
33 7 3
47 7 3
7 58 3
67 7 3
7 75 3
7 79 3
7 87 3
1 103 3
7 34 3
3 1 2
3 4 2
7 20 2
20 7 2
20 22 2
20 1 2
7 25 2
24 1 2
7 33 2
58 7 2
62 7 2
7 62 2
7 23 2
79 7 2
7 84 2
87 7 2
88 7 2
75 7 2
96 97 2
88 98 2
100 7 2
108 1 2
1 2 1
2 1 1
4 1 1
4 5 1
5 6 1
6 7 1
7 8 1
8 7 1
7 9 1
9 10 1
10 1 1
7 11 1
11 12 1
12 9 1
9 13 1
13 14 1
14 15 1
15 10 1
10 16 1
16 17 1
17 18 1
18 7 1
7 19 1
19 1 1
20 21 1
21 20 1
22 23 1
23 22 1
1 24 1
24 7 1
25 7 1
25 26 1
26 25 1
7 24 1
1 27 1
28 29 1
29 30 1
30 31 1
31 32 1
32 7 1
33 34 1
34 25 1
25 35 1
35 7 1
7 36 1
36 1 1
1 37 1
37 1 1
1 38 1
38 24 1
1 39 1
39 1 1
1 40 1
40 1 1
1 41 1
41 42 1
42 43 1
43 7 1
20 44 1
44 1 1
7 45 1
45 46 1
46 47 1
47 48 1
48 49 1
49 20 1
20 43 1
43 20 1
20 47 1
7 50 1
50 47 1
7 51 1
51 52 1
52 7 1
7 53 1
53 7 1
7 54 1
54 1 1
7 55 1
55 7 1
1 56 1
56 28 1
28 1 1
1 57 1
58 59 1
59 1 1
7 60 1
60 7 1
7 61 1
61 62 1
62 1 1
7 63 1
63 1 1
7 64 1
64 7 1
7 65 1
65 7 1
23 1 1
23 68 1
68 1 1
1 70 1
70 1 1
7 71 1
71 1 1
1 73 1
7 74 1
74 33 1
75 33 1
7 76 1
76 33 1
33 75 1
75 1 1
7 77 1
77 7 1
7 78 1
78 7 1
7 80 1
80 7 1
7 81 1
81 22 1
22 82 1
82 83 1
83 22 1
84 7 1
84 85 1
85 7 1
7 86 1
86 7 1
67 89 1
89 90 1
90 1 1
7 91 1
91 7 1
1 89 1
89 7 1
7 89 1
89 75 1
75 47 1
7 92 1
92 1 1
7 93 1
93 94 1
94 95 1
95 7 1
87 59 1
59 7 1
97 1 1
87 98 1
98 88 1
98 97 1
97 96 1
97 7 1
7 99 1
99 96 1
96 100 1
7 100 1
7 101 1
101 7 1
79 102 1
102 103 1
1 104 1
104 22 1
1 98 1
7 105 1
105 7 1
7 106 1
106 7 1
88 34 1
7 107 1
107 108 1
7 108 1
