6 4 61
4 6 61
16 4 60
4 16 58
5 4 53
4 5 52
19 5 23
5 19 23
28 16 10
16 28 10
56 16 10
23 5 9
16 56 9
48 3 8
5 23 7
6 16 6
29 5 6
5 29 6
3 48 6
5 17 5
17 5 5
5 6 4
16 5 4
3 38 4
16 51 4
51 16 4
39 64 4
7 5 3
5 18 3
3 5 3
25 24 3
5 26 3
30 5 3
5 30 3
34 6 3
35 36 3
37 6 3
43 5 3
5 43 3
45 5 3
5 45 3
64 39 3
4 74 3
74 4 3
2 3 2
6 7 2
4 7 2
5 7 2
18 5 2
16 13 2
16 6 2
19 24 2
24 23 2
5 25 2
24 5 2
24 19 2
26 5 2
6 5 2
6 37 2
40 5 2
5 40 2
44 5 2
5 44 2
46 5 2
5 46 2
38 48 2
5 48 2
5 52 2
5 54 2
4 56 2
57 5 2
36 35 2
1 2 1
3 4 1
7 4 1
7 6 1
7 8 1
8 6 1
6 9 1
9 10 1
10 9 1
9 4 1
5 11 1
11 12 1
12 13 1
13 14 1
14 15 1
15 16 1
18 4 1
16 19 1
4 14 1
14 16 1
13 20 1
20 21 1
21 22 1
22 3 1
19 16 1
19 4 1
25 23 1
23 25 1
24 25 1
26 19 1
5 24 1
5 27 1
27 25 1
25 5 1
4 28 1
28 4 1
16 29 1
29 30 1
30 31 1
31 32 1
32 5 1
4 33 1
33 34 1
6 35 1
36 34 1
6 34 1
6 24 1
5 37 1
4 29 1
29 3 1
38 39 1
39 6 1
4 40 1
40 16 1
4 41 1
41 42 1
42 4 1
16 40 1
40 43 1
43 44 1
44 45 1
45 46 1
46 16 1
4 30 1
30 16 1
13 47 1
47 6 1
4 32 1
32 4 1
4 3 1
5 49 1
49 5 1
3 50 1
50 2 1
2 4 1
5 16 1
52 5 1
5 53 1
53 5 1
52 53 1
53 6 1
6 54 1
54 5 1
54 55 1
55 5 1
54 56 1
4 57 1
57 56 1
56 58 1
58 33 1
33 16 1
56 6 1
56 57 1
5 57 1
6 59 1
59 4 1
4 59 1
59 56 1
16 60 1
60 57 1
57 60 1
60 16 1
16 61 1
61 4 1
16 62 1
62 63 1
63 57 1
57 4 1
56 64 1
64 65 1
65 64 1
64 6 1
6 39 1
39 4 1
4 39 1
64 56 1
56 66 1
66 67 1
67 68 1
68 69 1
69 70 1
70 67 1
67 71 1
71 72 1
72 67 1
67 72 1
72 73 1
73 4 1
4 36 1
36 19 1
19 3 1
38 3 1
48 2 1
48 4 1
