19 17 54
17 19 53
4 3 43
3 4 38
8 17 28
8 19 27
17 8 27
19 8 20
3 17 14
17 4 14
4 17 14
17 10 14
10 17 14
17 3 13
7 6 10
6 8 10
6 7 9
10 6 8
13 14 8
19 10 8
9 8 7
10 7 7
19 29 7
4 10 7
8 9 6
8 10 6
6 10 6
8 6 6
14 13 6
7 10 6
10 19 6
29 19 6
10 8 5
10 15 5
15 10 5
6 9 4
15 8 4
8 15 4
24 4 4
17 6 4
10 4 4
17 44 4
2 3 3
15 6 3
8 7 3
7 15 3
10 9 3
6 17 3
19 3 3
3 19 3
10 22 3
7 17 3
29 8 3
8 4 3
19 4 3
44 17 3
3 2 2
3 6 2
9 7 2
9 15 2
15 7 2
9 10 2
22 10 2
17 24 2
24 17 2
4 24 2
3 24 2
7 8 2
4 19 2
39 8 2
1 2 1
3 5 1
5 3 1
7 9 1
6 4 1
3 11 1
11 12 1
12 13 1
14 15 1
6 15 1
15 4 1
3 16 1
16 3 1
3 9 1
9 17 1
17 18 1
18 6 1
19 20 1
20 6 1
9 6 1
9 19 1
19 15 1
6 21 1
21 8 1
15 9 1
15 22 1
22 8 1
8 23 1
23 8 1
4 9 1
9 4 1
19 25 1
25 19 1
6 24 1
24 26 1
26 27 1
27 19 1
8 28 1
28 19 1
4 8 1
19 30 1
30 31 1
31 10 1
10 29 1
19 11 1
11 19 1
19 32 1
32 17 1
17 33 1
33 7 1
6 34 1
34 35 1
35 28 1
28 36 1
36 29 1
19 37 1
37 38 1
38 39 1
8 39 1
17 40 1
40 6 1
10 41 1
41 3 1
6 42 1
42 8 1
17 43 1
43 6 1
17 7 1
22 17 1
44 45 1
45 46 1
46 47 1
47 17 1
17 48 1
48 17 1
17 49 1
49 50 1
50 51 1
51 13 1
14 8 1
17 52 1
52 53 1
53 4 1
