14 8 173
8 14 169
14 23 47
23 14 44
7 8 40
8 7 37
18 14 29
14 18 25
13 7 23
27 14 23
14 27 23
29 14 20
14 29 18
14 13 16
13 14 14
8 13 14
7 13 14
8 29 13
13 8 11
7 14 11
29 8 11
16 14 8
8 16 8
14 16 7
16 8 7
14 7 7
12 2 6
2 12 5
14 17 5
17 14 5
14 25 5
1 2 4
3 8 4
1 10 4
25 14 4
2 1 3
5 3 3
8 3 3
10 1 3
19 14 3
14 19 3
21 18 3
18 21 3
3 7 2
23 18 2
8 17 2
17 8 2
23 13 2
8 33 2
33 8 2
2 3 1
3 4 1
4 5 1
5 6 1
6 5 1
7 9 1
9 5 1
3 9 1
9 3 1
3 5 1
7 3 1
8 1 1
10 8 1
8 11 1
11 12 1
2 13 1
7 11 1
11 8 1
8 5 1
5 14 1
14 15 1
15 16 1
8 18 1
18 19 1
19 18 1
18 8 1
8 20 1
20 8 1
8 21 1
14 22 1
22 18 1
23 24 1
24 18 1
14 26 1
26 14 1
16 18 1
21 14 1
14 21 1
21 8 1
8 19 1
19 27 1
27 28 1
28 14 1
25 8 1
8 30 1
30 14 1
8 27 1
27 23 1
18 23 1
14 31 1
31 14 1
14 32 1
32 8 1
14 34 1
34 13 1
