3 4 37
4 3 27
4 1 9
1 2 7
12 2 7
2 12 7
9 4 6
1 12 6
4 19 5
19 3 5
4 7 4
2 1 4
12 1 4
3 19 4
19 4 4
22 19 4
19 22 4
2 3 3
1 4 3
7 9 3
4 9 3
1 11 3
2 4 3
4 21 3
4 12 3
19 23 3
3 1 2
11 1 2
2 11 2
7 3 2
3 2 2
21 4 2
23 19 2
12 3 2
3 12 2
12 29 2
29 12 2
1 3 1
1 5 1
5 6 1
6 4 1
1 6 1
6 3 1
7 8 1
8 9 1
9 7 1
4 10 1
10 7 1
11 12 1
4 13 1
13 3 1
3 13 1
13 14 1
14 15 1
15 16 1
16 3 1
4 17 1
17 3 1
4 2 1
2 18 1
18 5 1
5 13 1
13 4 1
19 1 1
12 20 1
20 2 1
11 2 1
12 19 1
12 22 1
22 4 1
23 3 1
4 23 1
23 4 1
21 19 1
19 9 1
9 3 1
11 4 1
1 24 1
24 2 1
12 4 1
12 25 1
25 26 1
26 20 1
20 27 1
27 28 1
28 3 1
12 30 1
30 12 1
12 11 1
11 3 1
4 31 1
31 19 1
