2 1 30
1 2 29
3 5 8
5 9 8
5 3 8
9 5 7
1 3 5
5 1 4
3 1 3
1 4 3
4 5 3
1 6 3
3 9 3
18 5 3
30 1 3
9 34 3
3 4 2
4 1 2
6 1 2
2 3 2
5 8 2
8 3 2
1 10 2
10 2 2
14 5 2
9 15 2
15 9 2
9 1 2
17 2 2
5 18 2
1 5 2
27 9 2
2 30 2
1 31 2
31 1 2
34 9 2
3 2 1
6 5 1
5 7 1
7 4 1
4 7 1
7 5 1
8 5 1
1 7 1
7 11 1
11 3 1
3 8 1
3 12 1
12 3 1
3 13 1
13 3 1
9 14 1
5 6 1
6 14 1
5 14 1
14 9 1
15 14 1
14 15 1
2 16 1
16 2 1
2 17 1
1 17 1
4 3 1
3 18 1
5 4 1
9 19 1
19 20 1
20 2 1
2 21 1
21 2 1
2 22 1
22 1 1
1 23 1
23 22 1
22 23 1
23 2 1
5 24 1
24 25 1
25 26 1
26 27 1
9 26 1
26 28 1
28 27 1
9 29 1
29 1 1
1 30 1
1 32 1
32 2 1
5 33 1
33 5 1
2 31 1
31 9 1
34 5 1
9 35 1
35 36 1
36 34 1
34 36 1
36 5 1
5 37 1
37 5 1
5 2 1
2 10 1
10 1 1
