2 3 30
3 2 29
1 3 13
4 5 12
5 4 11
5 8 11
8 5 10
3 1 7
2 19 6
19 2 6
11 2 6
2 11 6
2 1 5
1 2 4
3 11 4
5 1 3
6 5 3
11 1 3
11 3 3
21 22 3
10 11 3
3 26 3
9 26 3
26 9 3
24 30 3
3 4 2
5 6 2
1 9 2
12 13 2
2 12 2
12 2 2
2 16 2
16 3 2
3 17 2
17 2 2
22 21 2
22 5 2
11 10 2
11 24 2
26 3 2
3 27 2
17 1 2
30 24 2
1 5 1
4 3 1
4 2 1
2 4 1
5 3 1
3 5 1
3 6 1
6 7 1
7 6 1
4 8 1
8 4 1
9 10 1
10 9 1
9 11 1
3 12 1
13 14 1
14 12 1
13 2 1
2 15 1
15 2 1
3 16 1
16 2 1
17 3 1
3 18 1
18 3 1
2 5 1
5 20 1
20 21 1
8 23 1
23 10 1
24 25 1
25 1 1
27 9 1
9 19 1
19 9 1
9 3 1
26 19 1
19 17 1
27 3 1
1 24 1
24 1 1
1 22 1
8 2 1
2 24 1
24 27 1
27 24 1
24 2 1
2 27 1
27 2 1
3 8 1
5 17 1
1 17 1
9 1 1
1 11 1
1 28 1
28 1 1
3 29 1
29 11 1
