2 4 8
4 2 7
2 5 6
2 3 4
3 2 4
4 5 4
4 3 3
5 2 3
14 27 3
14 29 3
14 39 3
14 44 3
3 4 2
3 5 2
13 5 2
5 14 2
19 14 2
5 22 2
22 14 2
27 28 2
27 14 2
29 30 2
30 14 2
14 30 2
31 14 2
32 14 2
14 2 2
14 35 2
35 14 2
22 3 2
3 22 2
44 14 2
5 3 2
1 2 1
4 1 1
1 3 1
5 6 1
6 3 1
5 7 1
7 5 1
5 8 1
8 2 1
5 9 1
9 10 1
10 4 1
5 11 1
11 5 1
5 12 1
12 13 1
5 13 1
5 4 1
14 15 1
15 14 1
14 16 1
16 17 1
17 18 1
18 19 1
14 17 1
17 20 1
20 21 1
21 5 1
14 4 1
2 23 1
23 2 1
2 24 1
24 25 1
25 26 1
26 27 1
28 27 1
28 14 1
27 2 1
22 4 1
3 14 1
30 31 1
29 31 1
14 31 1
31 32 1
29 14 1
14 32 1
30 29 1
4 14 1
14 33 1
33 14 1
14 34 1
34 14 1
14 36 1
36 37 1
37 38 1
38 22 1
22 2 1
39 14 1
39 40 1
40 19 1
39 41 1
41 14 1
14 41 1
41 42 1
42 9 1
9 43 1
43 22 1
44 45 1
45 14 1
2 46 1
46 5 1
5 47 1
47 4 1
3 48 1
48 49 1
49 50 1
50 4 1
