25 26 8
26 25 6
18 17 5
17 18 4
22 23 4
65 117 4
1 2 3
2 1 3
23 22 3
37 38 3
38 37 3
65 66 3
66 65 3
22 72 3
117 65 3
17 19 2
20 21 2
21 20 2
37 40 2
40 38 2
38 41 2
41 42 2
64 65 2
70 23 2
72 22 2
46 75 2
75 76 2
23 98 2
2 3 1
3 4 1
4 5 1
5 6 1
6 7 1
7 8 1
8 9 1
9 10 1
10 11 1
11 12 1
12 13 1
13 14 1
14 2 1
1 15 1
15 2 1
2 16 1
16 17 1
19 20 1
20 18 1
19 22 1
23 24 1
24 25 1
26 27 1
27 26 1
25 28 1
28 29 1
29 25 1
26 30 1
30 31 1
31 32 1
32 33 1
33 34 1
34 35 1
35 36 1
36 37 1
37 39 1
39 37 1
42 43 1
43 38 1
38 43 1
43 41 1
41 40 1
38 26 1
26 44 1
44 26 1
25 44 1
44 45 1
45 44 1
44 46 1
46 26 1
26 47 1
47 26 1
26 48 1
48 49 1
49 50 1
50 24 1
24 50 1
50 51 1
51 52 1
52 53 1
53 54 1
54 55 1
55 52 1
52 56 1
56 57 1
57 58 1
58 59 1
59 60 1
60 61 1
61 52 1
52 62 1
62 63 1
63 22 1
23 50 1
50 64 1
65 67 1
67 68 1
68 69 1
69 18 1
18 23 1
23 70 1
22 71 1
71 22 1
72 70 1
23 73 1
73 25 1
26 73 1
73 26 1
26 74 1
74 25 1
25 46 1
76 77 1
77 78 1
78 79 1
79 80 1
80 81 1
81 82 1
82 46 1
76 83 1
83 84 1
84 85 1
85 86 1
86 87 1
87 88 1
88 89 1
89 90 1
90 91 1
91 92 1
92 93 1
93 94 1
94 95 1
95 96 1
96 97 1
97 23 1
98 23 1
98 99 1
99 23 1
23 100 1
100 23 1
23 101 1
101 25 1
25 102 1
102 25 1
26 103 1
103 104 1
104 105 1
105 106 1
106 79 1
79 107 1
107 108 1
108 109 1
109 110 1
110 46 1
46 103 1
103 111 1
111 104 1
104 112 1
112 113 1
113 114 1
114 115 1
115 81 1
81 116 1
116 25 1
25 66 1
66 64 1
117 66 1
66 117 1
117 20 1
20 38 1
42 118 1
118 40 1
40 119 1
119 87 1
87 120 1
120 121 1
121 122 1
122 123 1
123 119 1
119 124 1
124 100 1
100 125 1
125 100 1
100 25 1
25 40 1
40 37 1
37 119 1
119 37 1
40 117 1
117 126 1
126 127 1
127 128 1
128 127 1
127 129 1
129 127 1
127 126 1
126 130 1
130 127 1
127 1 1
1 131 1
