1 3 29
3 24 22
24 3 19
3 1 15
2 8 9
24 1 8
8 2 7
23 3 6
3 23 6
25 26 5
3 2 4
23 24 4
26 25 4
24 23 3
3 27 3
3 31 3
31 1 3
2 1 2
3 8 2
8 13 2
15 1 2
25 8 2
12 25 2
27 3 2
1 24 2
3 32 2
32 3 2
33 3 2
3 33 2
35 36 2
33 39 2
44 3 2
1 2 1
3 4 1
4 5 1
5 6 1
6 7 1
7 3 1
2 3 1
8 9 1
9 10 1
10 11 1
11 12 1
12 11 1
11 8 1
13 2 1
13 8 1
8 14 1
14 1 1
1 15 1
3 9 1
9 16 1
16 1 1
3 17 1
17 18 1
18 17 1
17 19 1
19 17 1
17 20 1
20 17 1
17 1 1
3 21 1
21 22 1
22 23 1
24 9 1
9 24 1
24 15 1
8 25 1
2 25 1
26 12 1
25 12 1
8 24 1
27 24 1
3 28 1
28 24 1
24 29 1
29 30 1
30 3 1
31 24 1
31 3 1
24 31 1
1 31 1
8 3 1
1 33 1
33 34 1
34 23 1
23 33 1
33 35 1
35 3 1
3 35 1
36 35 1
36 24 1
3 7 1
7 37 1
37 1 1
3 38 1
38 33 1
39 33 1
39 40 1
40 2 1
8 40 1
40 41 1
41 42 1
42 33 1
33 43 1
43 8 1
8 12 1
12 24 1
24 44 1
3 44 1
3 45 1
45 3 1
2 22 1
