21 4 33
4 21 28
12 4 25
4 12 24
4 19 24
19 4 23
4 2 15
2 4 14
4 34 10
21 34 10
34 21 9
4 8 7
8 4 6
34 4 6
46 19 6
4 53 6
53 4 6
1 4 5
1 7 5
7 1 5
10 4 5
1 2 4
4 1 4
4 10 4
36 34 4
6 1 3
28 8 3
8 28 3
34 36 3
19 46 3
4 55 3
55 4 3
4 5 2
4 6 2
13 4 2
19 21 2
4 9 2
28 4 2
4 28 2
4 31 2
31 4 2
47 44 2
4 36 2
36 4 2
59 12 2
2 1 1
1 3 1
3 4 1
5 6 1
5 4 1
8 9 1
9 10 1
2 11 1
11 1 1
2 12 1
12 1 1
1 6 1
6 2 1
2 6 1
6 4 1
4 13 1
2 14 1
14 13 1
12 2 1
4 15 1
15 4 1
4 16 1
16 4 1
4 17 1
17 18 1
18 4 1
19 20 1
20 4 1
4 20 1
20 21 1
21 19 1
4 22 1
22 4 1
9 23 1
23 24 1
24 25 1
25 8 1
4 26 1
26 27 1
27 28 1
28 21 1
8 29 1
29 4 1
4 30 1
30 4 1
9 32 1
32 28 1
28 33 1
33 4 1
4 35 1
35 34 1
34 8 1
8 12 1
4 37 1
37 38 1
38 39 1
39 9 1
9 21 1
34 40 1
40 4 1
4 41 1
41 4 1
34 42 1
42 4 1
4 43 1
43 9 1
9 44 1
44 45 1
45 21 1
4 46 1
4 44 1
44 4 1
2 47 1
44 47 1
44 36 1
34 48 1
48 46 1
4 49 1
49 4 1
2 46 1
19 50 1
50 34 1
34 19 1
19 12 1
12 51 1
51 21 1
34 52 1
52 4 1
19 9 1
9 4 1
34 53 1
53 34 1
34 54 1
54 4 1
55 12 1
12 56 1
56 57 1
57 58 1
58 53 1
34 59 1
12 59 1
53 60 1
60 61 1
61 62 1
62 60 1
60 54 1
54 34 1
34 61 1
61 63 1
63 55 1
21 53 1
53 21 1
4 59 1
59 28 1
28 59 1
59 64 1
64 65 1
