35 4 30
4 35 25
4 18 23
18 4 22
31 4 17
4 31 15
4 2 12
2 4 12
4 58 9
35 58 9
58 35 8
4 53 7
4 11 6
58 4 6
53 4 6
68 31 6
1 4 5
83 4 5
1 9 4
9 1 4
11 4 4
59 58 4
4 83 4
1 2 3
6 1 3
4 1 3
13 4 3
4 12 3
44 11 3
11 44 3
58 59 3
31 68 3
4 87 3
87 4 3
4 5 2
20 4 2
31 35 2
44 4 2
4 44 2
64 4 2
4 59 2
82 4 2
2 1 1
1 3 1
3 4 1
5 6 1
1 7 1
7 2 1
2 8 1
8 1 1
5 4 1
9 10 1
10 9 1
11 12 1
12 13 1
4 14 1
14 15 1
15 4 1
11 16 1
16 2 1
2 17 1
17 1 1
2 18 1
18 1 1
1 6 1
6 2 1
2 6 1
6 19 1
19 6 1
4 20 1
4 21 1
21 6 1
2 22 1
22 23 1
23 20 1
18 24 1
24 25 1
25 4 1
4 26 1
26 4 1
4 27 1
27 13 1
4 28 1
28 29 1
29 30 1
30 4 1
31 32 1
32 33 1
33 4 1
4 33 1
33 34 1
34 31 1
4 36 1
36 37 1
37 35 1
4 38 1
38 13 1
4 39 1
39 4 1
4 40 1
40 4 1
4 41 1
41 4 1
12 42 1
42 11 1
4 43 1
43 44 1
44 35 1
11 45 1
45 4 1
4 46 1
46 11 1
11 47 1
47 4 1
4 48 1
48 4 1
4 49 1
49 4 1
4 50 1
50 4 1
4 51 1
51 4 1
18 52 1
52 4 1
53 31 1
4 54 1
54 4 1
12 55 1
55 44 1
44 56 1
56 4 1
4 57 1
57 4 1
4 37 1
37 4 1
58 11 1
11 18 1
18 60 1
60 18 1
4 61 1
61 4 1
4 62 1
62 12 1
12 35 1
35 63 1
63 35 1
58 64 1
4 64 1
35 65 1
65 4 1
58 66 1
66 4 1
12 67 1
67 35 1
4 68 1
4 69 1
69 4 1
4 70 1
70 2 1
4 71 1
71 2 1
2 72 1
72 69 1
69 73 1
73 69 1
69 59 1
58 68 1
59 4 1
59 74 1
74 4 1
4 75 1
75 4 1
2 68 1
31 58 1
58 76 1
76 31 1
31 18 1
18 77 1
77 78 1
78 79 1
79 4 1
4 80 1
80 4 1
4 81 1
81 27 1
27 12 1
12 82 1
4 60 1
60 83 1
83 84 1
84 4 1
4 85 1
85 58 1
58 82 1
82 86 1
86 82 1
87 27 1
27 88 1
88 89 1
89 90 1
90 83 1
58 91 1
91 18 1
18 91 1
91 92 1
92 4 1
4 93 1
93 4 1
4 94 1
94 4 1
4 95 1
95 93 1
93 96 1
96 97 1
97 98 1
98 96 1
96 82 1
82 97 1
97 99 1
99 86 1
86 87 1
4 100 1
100 35 1
35 83 1
83 35 1
4 101 1
101 31 1
4 102 1
102 91 1
91 44 1
44 91 1
91 103 1
103 104 1
104 103 1
103 105 1
105 106 1
