3 1 40
1 3 39
3 6 14
18 3 14
1 5 11
3 7 11
3 18 11
3 12 11
12 3 11
6 3 10
17 3 10
3 17 10
5 1 8
7 3 8
17 7 7
7 17 7
6 7 6
7 1 6
7 6 6
3 13 6
23 18 6
7 9 5
9 7 5
13 3 5
3 11 5
11 3 5
6 17 5
18 23 5
3 25 5
25 3 5
2 3 4
6 1 4
1 7 4
3 16 4
3 22 4
22 3 4
5 6 3
1 6 3
13 15 3
15 3 3
16 3 3
17 6 3
32 3 3
1 2 2
5 2 2
5 3 2
6 5 2
3 2 2
2 1 2
6 11 2
11 6 2
15 13 2
3 15 2
20 18 2
28 3 2
3 32 2
1 4 1
4 3 1
2 5 1
6 8 1
8 6 1
6 9 1
9 3 1
5 7 1
7 5 1
3 5 1
7 10 1
10 9 1
9 10 1
10 3 1
6 2 1
11 12 1
12 11 1
11 7 1
7 11 1
13 14 1
14 13 1
16 17 1
17 18 1
18 19 1
19 20 1
18 20 1
1 21 1
21 3 1
1 18 1
3 23 1
3 24 1
24 23 1
23 24 1
24 1 1
1 24 1
24 3 1
3 26 1
26 27 1
27 3 1
3 27 1
27 1 1
17 28 1
3 28 1
12 1 1
3 29 1
29 3 1
1 30 1
30 12 1
1 31 1
31 32 1
17 1 1
3 33 1
33 18 1
18 34 1
34 1 1
