29 66 7
66 29 6
32 31 5
18 37 5
12 44 5
49 12 5
31 32 4
44 12 4
12 66 4
12 18 4
14 15 3
29 22 3
34 18 3
18 34 3
42 12 3
29 49 3
57 32 3
21 32 3
66 76 3
148 12 3
66 18 3
29 72 3
2 3 2
8 2 2
26 24 2
26 21 2
30 31 2
37 18 2
34 32 2
32 18 2
41 12 2
12 42 2
22 29 2
12 49 2
56 32 2
32 57 2
32 56 2
32 21 2
66 57 2
78 79 2
79 80 2
80 79 2
29 76 2
42 66 2
142 67 2
12 148 2
12 97 2
12 116 2
18 66 2
37 66 2
167 162 2
18 12 2
49 44 2
29 97 2
72 12 2
76 66 2
1 2 1
3 4 1
4 5 1
5 6 1
6 7 1
7 2 1
2 8 1
8 9 1
9 8 1
3 8 1
2 10 1
10 11 1
11 12 1
12 13 1
13 2 1
2 14 1
15 14 1
14 16 1
16 17 1
17 14 1
14 18 1
18 19 1
19 20 1
20 21 1
21 22 1
22 21 1
21 23 1
23 24 1
24 25 1
25 22 1
22 26 1
24 27 1
27 23 1
23 28 1
28 26 1
21 29 1
22 30 1
31 30 1
31 33 1
33 32 1
31 34 1
18 35 1
35 36 1
36 18 1
18 30 1
30 18 1
37 38 1
38 34 1
32 34 1
34 31 1
31 39 1
39 31 1
31 40 1
40 29 1
29 12 1
12 41 1
42 22 1
22 42 1
12 43 1
43 12 1
44 42 1
42 41 1
12 45 1
45 22 1
22 45 1
45 46 1
46 22 1
22 47 1
47 48 1
48 42 1
42 29 1
49 22 1
22 44 1
12 50 1
50 51 1
51 49 1
44 52 1
52 53 1
53 29 1
29 54 1
54 29 1
29 55 1
55 56 1
56 58 1
58 59 1
59 60 1
60 32 1
32 61 1
61 56 1
56 60 1
60 62 1
62 21 1
21 63 1
63 32 1
57 21 1
21 64 1
64 62 1
62 65 1
65 56 1
56 66 1
57 39 1
39 57 1
57 67 1
67 29 1
29 68 1
68 24 1
24 69 1
69 70 1
70 26 1
26 71 1
71 72 1
72 73 1
73 56 1
32 74 1
74 75 1
75 32 1
32 75 1
75 21 1
32 76 1
76 77 1
77 78 1
79 78 1
79 66 1
66 79 1
79 75 1
75 81 1
81 82 1
82 66 1
66 83 1
83 82 1
82 84 1
84 64 1
64 76 1
76 84 1
84 75 1
75 76 1
76 85 1
85 66 1
66 86 1
86 87 1
87 88 1
88 89 1
89 87 1
87 90 1
90 91 1
91 92 1
92 93 1
93 94 1
94 15 1
15 95 1
95 96 1
96 97 1
97 14 1
14 98 1
98 99 1
99 32 1
32 99 1
99 100 1
100 101 1
101 99 1
99 18 1
18 102 1
102 18 1
18 32 1
18 103 1
103 104 1
104 60 1
60 105 1
105 106 1
106 107 1
107 66 1
66 108 1
108 60 1
60 57 1
57 108 1
108 57 1
57 29 1
29 109 1
109 29 1
76 29 1
29 110 1
110 97 1
97 29 1
56 111 1
111 32 1
32 111 1
111 56 1
56 57 1
32 29 1
29 21 1
21 112 1
112 113 1
113 42 1
42 114 1
114 115 1
115 116 1
116 117 1
117 66 1
66 42 1
42 118 1
118 42 1
42 119 1
119 120 1
120 42 1
66 121 1
121 122 1
122 123 1
123 124 1
124 42 1
66 116 1
116 125 1
125 126 1
126 66 1
76 127 1
127 128 1
128 129 1
129 130 1
130 131 1
131 132 1
132 133 1
133 132 1
132 134 1
134 66 1
66 135 1
135 136 1
136 137 1
137 132 1
132 138 1
138 139 1
139 66 1
66 132 1
132 140 1
140 141 1
141 142 1
67 102 1
102 142 1
67 143 1
143 144 1
144 67 1
67 145 1
145 67 1
67 146 1
146 67 1
67 147 1
147 148 1
76 44 1
44 66 1
66 149 1
149 150 1
150 151 1
151 152 1
152 153 1
153 97 1
97 154 1
154 153 1
153 155 1
155 156 1
156 12 1
97 12 1
12 157 1
157 12 1
116 12 1
116 76 1
76 12 1
66 26 1
21 26 1
24 63 1
63 66 1
66 158 1
158 12 1
12 159 1
159 160 1
160 161 1
161 162 1
162 18 1
18 163 1
163 18 1
37 164 1
164 37 1
37 72 1
72 37 1
66 165 1
165 37 1
66 166 1
166 26 1
26 167 1
162 167 1
162 168 1
168 169 1
169 66 1
66 170 1
170 66 1
29 14 1
15 16 1
16 171 1
171 14 1
14 172 1
172 173 1
173 174 1
174 175 1
175 176 1
176 177 1
177 12 1
12 178 1
178 12 1
18 179 1
179 12 1
18 180 1
180 170 1
170 181 1
181 29 1
29 182 1
182 183 1
183 29 1
72 29 1
66 184 1
184 29 1
66 185 1
185 186 1
186 66 1
66 110 1
110 66 1
29 89 1
89 29 1
72 187 1
187 73 1
73 29 1
29 188 1
188 29 1
29 189 1
189 190 1
190 191 1
191 49 1
12 192 1
192 193 1
193 42 1
44 194 1
194 49 1
12 195 1
195 196 1
196 197 1
197 198 1
198 199 1
199 29 1
66 200 1
200 29 1
66 198 1
198 201 1
201 202 1
202 203 1
203 116 1
116 29 1
29 204 1
204 29 1
97 205 1
205 66 1
49 29 1
29 206 1
206 207 1
207 66 1
66 208 1
208 29 1
49 209 1
209 210 1
210 211 1
211 29 1
97 212 1
212 86 1
86 213 1
213 214 1
214 116 1
116 215 1
215 216 1
216 217 1
217 29 1
29 218 1
218 49 1
44 219 1
219 49 1
49 66 1
66 220 1
220 12 1
12 221 1
221 222 1
222 42 1
42 223 1
223 224 1
224 49 1
49 225 1
225 66 1
66 226 1
226 227 1
227 223 1
223 228 1
228 229 1
229 162 1
162 49 1
44 29 1
12 72 1
66 230 1
230 44 1
44 231 1
231 44 1
66 12 1
12 232 1
232 12 1
97 162 1
162 233 1
233 29 1
29 26 1
26 66 1
66 234 1
234 235 1
235 24 1
24 18 1
37 236 1
236 18 1
18 237 1
237 110 1
110 238 1
238 66 1
18 239 1
239 18 1
18 72 1
72 18 1
18 240 1
240 241 1
241 242 1
242 240 1
240 116 1
116 15 1
15 243 1
243 14 1
14 173 1
173 14 1
