7 3 55
3 7 54
3 13 25
13 3 21
5 6 15
10 5 15
5 10 14
7 13 12
13 7 12
6 3 10
6 5 10
6 7 9
3 6 8
7 6 8
5 7 7
7 5 7
8 11 7
6 10 7
7 10 6
10 7 6
7 8 6
10 13 6
3 5 5
11 8 5
8 15 5
13 6 5
10 6 5
13 5 5
11 3 4
15 8 4
5 3 4
5 13 4
13 8 4
13 10 4
10 20 4
1 2 3
6 8 3
3 11 3
10 3 3
3 17 3
8 13 3
3 10 3
25 7 3
20 10 3
2 1 2
8 3 2
17 3 2
8 5 2
6 13 2
3 15 2
7 25 2
20 7 2
26 7 2
2 3 1
3 4 1
4 3 1
8 9 1
9 3 1
3 9 1
9 7 1
7 9 1
9 6 1
6 9 1
9 10 1
10 4 1
4 6 1
3 12 1
12 3 1
6 4 1
4 14 1
14 15 1
15 4 1
4 10 1
8 7 1
3 16 1
16 3 1
17 7 1
7 18 1
18 7 1
13 19 1
19 10 1
6 20 1
20 6 1
5 8 1
8 6 1
5 21 1
21 7 1
15 7 1
15 5 1
6 21 1
21 10 1
10 21 1
21 3 1
6 22 1
22 5 1
5 22 1
22 6 1
11 13 1
10 11 1
11 5 1
3 23 1
23 3 1
15 3 1
7 24 1
24 15 1
15 25 1
8 10 1
7 20 1
3 26 1
7 26 1
5 26 1
26 5 1
13 27 1
27 7 1
7 28 1
28 29 1
29 30 1
30 31 1
31 32 1
