29 4 47
4 29 44
4 42 44
42 4 43
7 4 24
4 7 22
51 4 17
4 51 16
27 6 9
6 27 9
32 4 8
4 32 8
10 6 7
6 10 7
42 7 7
4 5 6
31 29 6
32 29 6
4 10 6
6 8 5
6 14 5
14 6 5
21 22 5
22 21 5
4 27 5
29 31 5
31 4 5
29 32 5
4 31 5
4 37 5
4 44 5
44 4 5
5 4 5
6 7 4
7 6 4
8 6 4
7 21 4
21 7 4
7 42 4
10 4 4
3 4 3
6 9 3
19 6 3
27 4 3
37 4 3
4 6 3
4 21 3
21 4 3
56 4 3
6 4 3
4 58 3
58 4 3
7 8 2
10 7 2
9 6 2
6 19 2
21 6 2
25 6 2
30 4 2
7 29 2
36 4 2
37 29 2
29 42 2
10 46 2
8 4 2
4 50 2
4 8 2
4 56 2
4 3 2
1 2 1
2 3 1
5 6 1
9 10 1
7 10 1
6 11 1
11 10 1
10 9 1
9 11 1
11 12 1
12 13 1
13 6 1
6 15 1
15 6 1
6 16 1
16 7 1
8 9 1
9 17 1
17 18 1
18 19 1
6 20 1
20 7 1
10 21 1
6 23 1
23 6 1
6 21 1
7 24 1
24 25 1
6 25 1
8 26 1
26 6 1
6 26 1
26 27 1
27 28 1
28 4 1
29 30 1
4 30 1
4 33 1
33 32 1
4 34 1
34 31 1
29 7 1
4 35 1
35 36 1
4 36 1
27 29 1
29 38 1
38 29 1
27 39 1
39 4 1
29 40 1
40 4 1
4 41 1
41 4 1
42 29 1
4 43 1
43 4 1
4 45 1
45 4 1
7 17 1
17 42 1
4 18 1
18 4 1
46 10 1
10 47 1
47 4 1
4 47 1
47 10 1
46 4 1
4 48 1
48 4 1
6 49 1
49 4 1
50 4 1
4 23 1
23 4 1
4 52 1
52 4 1
4 53 1
53 4 1
50 44 1
44 54 1
54 51 1
4 54 1
54 4 1
4 55 1
55 4 1
21 51 1
51 7 1
8 56 1
4 57 1
57 6 1
4 59 1
59 60 1
60 29 1
29 21 1
4 61 1
61 4 1
4 62 1
62 4 1
