3 1 81
1 3 78
20 1 49
1 20 45
1 26 32
26 1 31
1 18 11
43 1 11
45 48 11
10 1 10
1 36 10
36 1 10
18 1 9
1 43 9
1 39 8
39 1 8
1 10 8
45 46 7
48 46 7
48 45 7
43 3 5
46 45 5
1 2 4
10 11 4
17 10 4
23 1 4
1 23 4
39 10 4
10 39 4
1 42 4
42 1 4
45 43 4
11 10 3
1 15 3
15 1 3
10 17 3
19 18 3
18 19 3
19 1 3
1 21 3
25 1 3
28 2 3
3 43 3
3 45 3
45 1 3
1 45 3
43 45 3
10 45 3
2 1 2
4 1 2
1 6 2
6 1 2
1 7 2
3 10 2
1 19 2
18 20 2
21 1 2
1 25 2
3 34 2
34 3 2
49 3 2
3 49 2
49 43 2
46 43 2
46 57 2
43 10 2
46 48 2
10 53 2
61 45 2
45 10 2
1 4 1
4 5 1
5 4 1
7 1 1
2 3 1
3 8 1
8 3 1
3 9 1
9 1 1
11 1 1
1 12 1
12 1 1
1 13 1
13 1 1
1 14 1
14 1 1
1 16 1
16 4 1
1 17 1
20 18 1
21 19 1
1 22 1
22 20 1
20 23 1
23 3 1
1 24 1
24 1 1
26 20 1
2 27 1
27 28 1
2 20 1
2 29 1
29 28 1
2 30 1
30 28 1
2 31 1
31 2 1
2 32 1
32 33 1
33 2 1
7 3 1
10 25 1
1 35 1
35 3 1
1 37 1
37 38 1
38 39 1
39 40 1
40 39 1
39 3 1
3 41 1
41 20 1
42 43 1
43 42 1
18 42 1
42 10 1
10 3 1
1 44 1
44 45 1
46 18 1
18 47 1
47 45 1
1 49 1
45 2 1
2 50 1
50 20 1
20 3 1
43 49 1
3 51 1
51 52 1
52 1 1
1 48 1
46 3 1
1 53 1
53 54 1
54 45 1
45 54 1
54 48 1
45 55 1
55 1 1
1 55 1
55 10 1
48 56 1
56 43 1
45 18 1
18 45 1
57 48 1
57 58 1
58 45 1
45 3 1
10 48 1
48 43 1
46 59 1
59 43 1
43 59 1
59 34 1
34 46 1
46 60 1
60 45 1
53 10 1
53 43 1
43 57 1
57 10 1
48 3 1
3 61 1
1 54 1
54 61 1
