8 4 66
4 8 65
4 5 44
5 4 43
4 18 17
10 4 16
4 10 13
18 4 13
8 10 12
10 8 11
2 18 11
26 4 9
4 51 9
51 4 9
18 2 8
4 78 8
4 26 7
78 4 7
4 62 6
96 4 6
4 96 6
18 21 5
27 4 5
4 35 5
96 5 5
4 2 4
4 27 4
31 4 4
4 59 4
59 4 4
62 4 4
7 18 4
5 2 4
18 5 4
6 4 3
4 7 3
21 18 3
21 4 3
5 10 3
25 4 3
4 25 3
10 26 3
26 27 3
4 28 3
18 7 3
4 97 3
97 4 3
2 96 3
2 3 2
7 8 2
8 7 2
10 5 2
20 4 2
18 8 2
8 5 2
27 26 2
28 4 2
4 32 2
32 4 2
37 4 2
38 8 2
39 4 2
4 38 2
54 51 2
18 20 2
20 18 2
4 64 2
64 4 2
66 4 2
2 36 2
4 36 2
78 31 2
83 4 2
25 10 2
5 18 2
5 96 2
101 18 2
18 101 2
18 96 2
96 101 2
101 96 2
1 2 1
3 4 1
3 2 1
2 4 1
5 6 1
4 6 1
7 6 1
7 9 1
9 10 1
5 11 1
11 12 1
12 8 1
8 11 1
11 4 1
5 9 1
9 8 1
10 13 1
13 8 1
8 14 1
14 15 1
15 10 1
4 16 1
16 10 1
4 17 1
17 15 1
15 18 1
4 19 1
19 20 1
10 22 1
22 20 1
4 23 1
23 8 1
5 24 1
24 25 1
8 28 1
28 29 1
29 4 1
28 30 1
30 31 1
4 33 1
33 4 1
5 34 1
34 8 1
35 36 1
36 37 1
4 37 1
8 38 1
8 36 1
36 4 1
4 39 1
8 40 1
40 8 1
8 39 1
39 41 1
41 8 1
8 42 1
42 4 1
4 43 1
43 44 1
44 4 1
8 45 1
45 4 1
4 46 1
46 4 1
8 47 1
47 4 1
4 48 1
48 2 1
2 38 1
38 4 1
38 46 1
46 49 1
49 46 1
46 8 1
8 50 1
50 8 1
51 52 1
52 51 1
51 53 1
53 52 1
52 54 1
51 8 1
8 51 1
51 55 1
55 54 1
4 56 1
56 4 1
18 57 1
57 4 1
4 58 1
58 4 1
4 60 1
60 8 1
8 60 1
60 61 1
61 4 1
62 10 1
4 63 1
63 8 1
62 8 1
8 65 1
65 8 1
4 66 1
8 67 1
67 4 1
8 66 1
4 68 1
68 8 1
8 68 1
68 4 1
4 69 1
69 5 1
5 50 1
50 5 1
4 70 1
70 71 1
71 2 1
4 72 1
72 5 1
5 73 1
73 4 1
4 74 1
74 4 1
36 26 1
36 31 1
31 75 1
75 8 1
36 8 1
8 76 1
76 8 1
4 77 1
77 4 1
4 79 1
79 4 1
31 78 1
4 80 1
80 81 1
81 82 1
82 72 1
72 4 1
35 31 1
4 21 1
18 83 1
4 83 1
10 18 1
21 31 1
31 10 1
10 21 1
4 53 1
53 18 1
4 84 1
84 5 1
5 31 1
18 10 1
5 75 1
75 85 1
85 4 1
4 86 1
86 4 1
10 87 1
87 4 1
10 88 1
88 8 1
8 88 1
88 10 1
5 89 1
89 4 1
10 25 1
4 90 1
90 91 1
91 4 1
35 27 1
27 10 1
35 5 1
5 92 1
92 4 1
4 93 1
93 5 1
35 94 1
94 39 1
4 95 1
95 10 1
8 96 1
96 98 1
98 96 1
4 99 1
99 5 1
5 99 1
99 100 1
100 101 1
101 102 1
102 4 1
2 5 1
5 103 1
103 96 1
96 18 1
96 2 1
2 26 1
26 5 1
96 10 1
36 96 1
5 104 1
104 4 1
18 105 1
105 5 1
4 101 1
101 106 1
106 2 1
5 36 1
36 107 1
107 4 1
96 108 1
108 96 1
96 6 1
6 5 1
26 2 1
96 8 1
10 96 1
96 20 1
20 101 1
101 109 1
109 103 1
103 5 1
2 101 1
101 110 1
110 96 1
96 35 1
35 7 1
7 4 1
4 111 1
111 4 1
