2 10 51
2 7 50
10 2 48
7 2 44
2 45 42
45 2 40
18 2 32
2 18 31
7 45 23
45 7 21
9 2 14
10 9 12
7 10 10
18 7 9
10 7 9
2 9 9
7 18 8
7 56 8
9 10 7
56 7 7
2 22 6
9 45 5
45 56 5
45 9 4
62 45 4
7 67 4
21 2 3
18 10 3
22 2 3
44 45 3
45 18 3
56 45 3
45 57 3
62 7 3
64 20 3
45 52 3
9 7 2
9 12 2
14 7 2
10 21 2
21 10 2
22 10 2
9 18 2
45 44 2
7 44 2
44 9 2
18 45 2
58 7 2
58 59 2
59 58 2
2 19 2
20 64 2
45 62 2
67 62 2
67 45 2
67 7 2
7 62 2
52 45 2
1 2 1
2 3 1
3 2 1
2 4 1
4 2 1
2 5 1
5 6 1
6 5 1
5 7 1
7 8 1
8 9 1
2 11 1
11 9 1
12 9 1
12 13 1
13 14 1
7 14 1
7 15 1
15 16 1
16 7 1
7 17 1
17 2 1
18 19 1
19 20 1
20 10 1
7 20 1
20 21 1
21 9 1
9 21 1
7 22 1
22 18 1
10 23 1
23 10 1
10 24 1
24 25 1
25 22 1
22 25 1
25 2 1
10 25 1
25 26 1
26 7 1
10 27 1
27 2 1
18 21 1
21 22 1
22 21 1
22 28 1
28 5 1
5 18 1
18 29 1
29 30 1
30 18 1
7 30 1
30 10 1
10 31 1
31 10 1
10 32 1
32 18 1
7 21 1
10 33 1
33 30 1
30 34 1
34 5 1
5 9 1
9 25 1
25 10 1
2 35 1
35 2 1
2 36 1
36 2 1
10 37 1
37 10 1
10 38 1
38 2 1
10 18 1
9 39 1
39 20 1
20 2 1
2 40 1
40 2 1
10 41 1
41 10 1
10 42 1
42 10 1
10 43 1
43 10 1
10 44 1
45 46 1
46 47 1
47 10 1
18 23 1
23 18 1
2 48 1
48 44 1
44 49 1
49 50 1
50 9 1
45 50 1
50 7 1
7 51 1
51 9 1
9 52 1
52 2 1
44 2 1
7 52 1
52 44 1
9 51 1
51 7 1
7 49 1
49 51 1
51 45 1
2 53 1
53 2 1
9 54 1
54 7 1
7 55 1
55 7 1
56 2 1
45 19 1
19 45 1
2 57 1
57 45 1
57 2 1
57 7 1
57 58 1
2 56 1
7 58 1
19 60 1
60 2 1
19 61 1
61 45 1
56 62 1
56 63 1
63 19 1
19 64 1
64 9 1
9 65 1
65 45 1
45 64 1
20 66 1
66 45 1
45 65 1
65 66 1
66 48 1
48 62 1
62 67 1
45 68 1
68 69 1
69 70 1
70 71 1
71 9 1
7 72 1
72 67 1
7 9 1
9 67 1
52 18 1
45 73 1
73 62 1
52 9 1
56 74 1
74 67 1
67 9 1
62 2 1
45 67 1
67 52 1
52 75 1
75 52 1
52 20 1
20 52 1
67 76 1
76 7 1
7 76 1
76 2 1
45 77 1
77 52 1
52 78 1
78 71 1
71 7 1
18 9 1
2 70 1
70 2 1
