3 4 44
4 3 44
10 4 23
4 10 22
4 16 22
16 4 17
3 10 6
4 7 6
4 17 5
16 10 5
24 25 5
3 24 5
39 4 5
24 3 4
16 3 3
17 4 3
16 24 3
25 24 3
24 4 3
3 25 3
10 3 3
25 3 3
7 3 3
16 7 3
7 4 3
7 39 3
25 16 3
4 80 3
7 92 3
92 4 3
92 16 3
39 25 3
25 39 3
3 17 2
10 16 2
16 23 2
23 4 2
3 45 2
45 3 2
46 17 2
4 45 2
3 7 2
25 4 2
7 51 2
4 39 2
4 46 2
4 24 2
4 76 2
76 4 2
28 4 2
4 79 2
79 4 2
80 4 2
10 85 2
84 85 2
4 87 2
87 4 2
4 92 2
16 92 2
17 46 2
105 7 2
1 2 1
2 3 1
4 5 1
5 6 1
6 7 1
7 8 1
8 9 1
9 10 1
10 11 1
11 9 1
9 4 1
4 12 1
12 3 1
3 13 1
13 5 1
5 14 1
14 15 1
15 16 1
17 3 1
3 18 1
18 3 1
4 19 1
19 4 1
16 20 1
20 16 1
4 21 1
21 22 1
22 16 1
4 23 1
23 16 1
25 26 1
26 27 1
27 25 1
4 28 1
28 16 1
16 29 1
29 4 1
3 16 1
3 30 1
30 31 1
31 4 1
4 32 1
32 33 1
33 3 1
3 34 1
34 3 1
3 35 1
35 3 1
3 36 1
36 37 1
37 27 1
27 3 1
24 38 1
38 24 1
24 39 1
39 24 1
3 40 1
40 3 1
4 41 1
41 3 1
10 42 1
42 43 1
43 3 1
4 44 1
44 4 1
45 4 1
3 46 1
17 16 1
45 16 1
16 45 1
17 47 1
47 48 1
48 39 1
39 3 1
4 25 1
4 49 1
49 50 1
50 7 1
51 25 1
25 52 1
52 53 1
53 4 1
3 54 1
54 55 1
55 53 1
53 10 1
10 56 1
56 7 1
51 57 1
57 58 1
58 46 1
46 59 1
59 60 1
60 4 1
45 59 1
59 39 1
39 11 1
11 7 1
4 61 1
61 4 1
4 62 1
62 7 1
39 59 1
59 63 1
63 39 1
39 63 1
63 16 1
46 4 1
10 64 1
64 4 1
4 65 1
65 4 1
4 66 1
66 4 1
4 67 1
67 4 1
4 68 1
68 69 1
69 4 1
25 70 1
70 25 1
24 71 1
71 72 1
72 4 1
4 73 1
73 25 1
24 74 1
74 24 1
16 74 1
74 25 1
4 75 1
75 39 1
4 77 1
77 4 1
4 43 1
43 4 1
4 78 1
78 4 1
7 79 1
79 28 1
80 81 1
81 4 1
16 28 1
4 82 1
82 4 1
10 83 1
83 10 1
10 84 1
84 16 1
85 4 1
4 84 1
85 84 1
85 86 1
86 4 1
4 85 1
85 10 1
85 16 1
16 88 1
88 4 1
4 88 1
88 16 1
16 89 1
89 10 1
10 90 1
90 4 1
4 91 1
91 4 1
92 7 1
17 10 1
10 93 1
93 94 1
94 4 1
16 43 1
43 95 1
95 17 1
46 96 1
96 16 1
17 48 1
48 97 1
97 98 1
98 39 1
16 46 1
46 10 1
10 7 1
7 10 1
10 99 1
99 97 1
97 100 1
100 101 1
101 16 1
16 102 1
102 10 1
10 103 1
103 104 1
104 105 1
105 25 1
25 106 1
106 10 1
10 20 1
20 105 1
39 107 1
107 4 1
4 108 1
108 7 1
7 105 1
7 109 1
109 10 1
10 110 1
110 111 1
111 106 1
106 112 1
112 113 1
113 110 1
110 107 1
107 114 1
114 115 1
115 116 1
116 46 1
46 39 1
46 16 1
39 46 1
46 117 1
117 4 1
7 25 1
25 48 1
48 4 1
7 48 1
48 82 1
82 10 1
10 118 1
118 39 1
39 76 1
76 46 1
46 119 1
119 46 1
46 120 1
120 10 1
10 121 1
121 122 1
122 46 1
46 123 1
123 124 1
124 125 1
125 126 1
126 46 1
46 127 1
127 128 1
128 129 1
129 127 1
127 46 1
46 130 1
130 4 1
10 131 1
