3 4 190
4 3 184
7 4 31
4 7 31
4 10 16
7 3 15
3 7 15
10 4 15
4 51 11
51 4 9
4 6 8
4 77 8
33 4 7
77 4 7
6 4 6
4 33 6
61 4 6
4 71 6
28 4 5
4 61 5
71 4 5
3 6 4
16 4 4
4 83 4
4 28 4
6 3 3
3 16 3
4 42 3
4 63 3
63 61 3
83 4 3
10 3 2
3 10 2
10 12 2
15 3 2
4 16 2
4 24 2
4 36 2
41 4 2
42 4 2
61 3 2
63 4 2
61 6 2
4 67 2
67 4 2
4 8 2
8 4 2
4 75 2
75 4 2
4 78 2
78 4 2
78 77 2
77 78 2
4 86 2
90 4 2
1 2 1
2 3 1
3 5 1
5 4 1
6 7 1
6 8 1
8 3 1
3 9 1
9 4 1
10 11 1
11 10 1
12 10 1
12 4 1
3 13 1
13 14 1
14 15 1
3 15 1
16 3 1
16 17 1
17 16 1
16 18 1
18 19 1
19 16 1
16 20 1
20 16 1
3 21 1
21 4 1
4 22 1
22 4 1
4 23 1
23 4 1
24 4 1
3 25 1
25 3 1
4 26 1
26 4 1
3 27 1
27 28 1
4 29 1
29 30 1
30 4 1
4 31 1
31 4 1
4 32 1
32 28 1
3 33 1
33 34 1
34 3 1
4 35 1
35 3 1
36 37 1
37 3 1
36 3 1
4 38 1
38 3 1
4 39 1
39 4 1
7 40 1
40 3 1
3 41 1
4 41 1
42 3 1
4 43 1
43 4 1
4 44 1
44 4 1
4 45 1
45 4 1
24 3 1
4 46 1
46 4 1
4 47 1
47 4 1
4 48 1
48 4 1
4 49 1
49 4 1
4 50 1
50 3 1
51 23 1
23 52 1
52 4 1
4 53 1
53 4 1
4 54 1
54 6 1
6 55 1
55 56 1
56 57 1
57 3 1
3 58 1
58 57 1
57 59 1
59 60 1
60 33 1
3 61 1
3 62 1
62 63 1
63 64 1
64 62 1
62 4 1
4 62 1
62 56 1
56 4 1
6 61 1
6 63 1
61 63 1
6 58 1
58 65 1
65 3 1
3 66 1
66 3 1
4 68 1
68 4 1
51 69 1
69 4 1
4 70 1
70 4 1
71 34 1
34 4 1
4 72 1
72 4 1
4 73 1
73 4 1
4 74 1
74 4 1
4 76 1
76 4 1
77 79 1
79 4 1
4 80 1
80 4 1
4 81 1
81 4 1
4 82 1
82 61 1
83 3 1
4 84 1
84 3 1
3 85 1
85 3 1
86 87 1
87 4 1
86 4 1
4 88 1
88 3 1
4 25 1
25 32 1
32 4 1
4 89 1
89 4 1
4 90 1
4 91 1
91 92 1
92 90 1
28 3 1
3 93 1
93 4 1
28 94 1
94 28 1
