8 17 134
17 8 129
8 11 26
11 8 25
17 20 23
20 17 23
8 9 22
9 8 21
25 8 21
8 25 20
17 25 15
25 17 14
10 8 12
8 10 11
17 19 9
19 17 8
8 14 7
11 17 7
14 8 6
15 8 6
17 11 6
29 17 6
17 36 6
36 17 6
17 37 6
37 17 6
17 29 5
10 9 4
19 8 4
23 17 4
35 8 4
9 10 3
8 15 3
8 19 3
8 21 3
21 8 3
17 23 3
27 17 3
25 29 3
8 35 3
10 11 2
11 9 2
9 11 2
13 8 2
8 20 2
24 23 2
8 26 2
26 25 2
26 8 2
17 15 2
17 27 2
29 8 2
8 29 2
29 25 2
8 32 2
32 8 2
1 2 1
2 3 1
3 4 1
4 5 1
5 6 1
6 7 1
7 8 1
8 12 1
12 8 1
8 13 1
14 15 1
15 16 1
16 8 1
17 18 1
18 17 1
17 13 1
19 13 1
13 19 1
20 22 1
22 23 1
23 24 1
17 24 1
23 8 1
25 26 1
20 27 1
17 28 1
28 26 1
17 30 1
30 25 1
8 31 1
31 8 1
9 25 1
25 10 1
17 9 1
9 17 1
8 33 1
33 25 1
25 34 1
34 35 1
25 15 1
11 38 1
38 8 1
11 10 1
17 39 1
39 10 1
8 28 1
28 10 1
