23 9 17
9 16 16
16 9 16
9 23 16
7 9 15
9 7 15
23 24 13
24 23 13
19 9 10
7 23 8
7 8 7
9 19 7
8 7 6
7 19 6
23 7 6
15 9 5
9 15 5
23 5 5
5 7 5
5 23 4
19 7 4
23 29 4
29 23 4
23 19 4
9 5 3
15 7 3
7 15 3
19 23 3
3 4 2
14 15 2
7 16 2
16 7 2
9 27 2
5 9 2
23 15 2
7 5 2
9 8 2
1 2 1
2 1 1
1 3 1
4 3 1
4 5 1
5 4 1
4 6 1
6 7 1
9 10 1
10 11 1
11 8 1
8 12 1
12 7 1
8 13 1
13 14 1
15 14 1
9 17 1
17 9 1
9 18 1
18 19 1
19 20 1
20 18 1
18 7 1
9 21 1
21 22 1
22 23 1
23 21 1
21 23 1
23 25 1
25 23 1
23 26 1
26 23 1
27 9 1
27 23 1
23 28 1
28 23 1
29 9 1
16 30 1
30 23 1
7 4 1
4 7 1
23 31 1
31 23 1
23 32 1
32 5 1
15 23 1
15 33 1
33 23 1
23 20 1
20 16 1
8 9 1
16 34 1
34 9 1
8 16 1
23 35 1
35 23 1
7 30 1
30 36 1
36 30 1
30 29 1
15 37 1
