1 2 65
2 1 65
4 2 21
2 4 19
1 12 14
1 4 13
9 4 13
12 1 13
4 9 12
4 1 10
12 2 10
2 12 9
2 5 8
10 2 8
2 10 8
1 9 8
9 2 8
2 9 8
9 1 7
5 2 6
6 1 6
1 6 4
11 1 4
18 2 4
6 9 3
1 11 3
2 16 3
16 2 3
2 18 3
5 6 2
7 5 2
2 6 2
9 6 2
2 13 2
5 1 2
8 6 2
2 22 2
1 3 1
3 2 1
6 5 1
5 7 1
5 8 1
8 7 1
4 6 1
1 10 1
10 11 1
12 11 1
11 12 1
13 14 1
14 15 1
15 1 1
1 13 1
13 2 1
13 1 1
1 14 1
14 2 1
2 17 1
17 1 1
1 18 1
4 5 1
4 19 1
19 4 1
1 8 1
8 1 1
6 20 1
20 6 1
6 21 1
21 20 1
20 21 1
21 8 1
6 8 1
6 2 1
22 2 1
22 1 1
