4 9 63
9 4 61
11 4 59
4 11 52
4 27 44
27 4 44
4 10 22
10 4 22
36 4 19
4 36 19
11 10 16
10 11 15
4 22 14
22 4 14
10 27 14
27 10 13
9 11 12
32 4 11
4 35 11
27 11 10
4 32 10
4 12 9
11 12 9
12 11 9
35 4 9
11 9 8
12 4 8
11 27 7
4 26 6
26 4 6
12 9 5
12 27 5
27 12 5
16 17 4
9 27 4
27 9 4
10 9 4
9 12 4
11 36 4
4 5 3
17 16 3
23 4 3
4 23 3
35 10 3
36 11 3
9 36 3
36 9 3
3 4 2
7 4 2
19 17 2
17 19 2
10 12 2
12 10 2
21 4 2
1 2 1
2 3 1
4 3 1
5 6 1
6 4 1
4 7 1
4 8 1
8 4 1
4 13 1
13 14 1
14 15 1
15 16 1
17 18 1
18 19 1
19 4 1
4 20 1
20 11 1
11 20 1
20 4 1
4 21 1
21 22 1
22 23 1
22 24 1
24 22 1
9 25 1
25 4 1
26 10 1
10 26 1
23 11 1
9 28 1
28 9 1
4 28 1
28 4 1
4 29 1
29 9 1
9 7 1
4 30 1
30 11 1
4 31 1
31 32 1
11 32 1
32 33 1
33 11 1
4 34 1
34 4 1
11 35 1
4 37 1
37 4 1
9 35 1
35 11 1
36 38 1
38 39 1
39 10 1
10 40 1
40 35 1
35 36 1
36 10 1
11 5 1
5 10 1
11 41 1
41 4 1
4 42 1
42 36 1
10 36 1
36 27 1
9 43 1
43 9 1
9 6 1
6 5 1
5 9 1
9 5 1
5 4 1
4 44 1
44 11 1
5 45 1
45 11 1
5 27 1
10 46 1
46 10 1
36 21 1
4 47 1
47 48 1
48 21 1
