3 4 110
4 3 106
15 14 13
4 28 12
28 4 12
14 15 10
27 4 10
14 4 9
4 27 9
4 14 6
8 3 4
4 15 4
8 14 4
14 8 4
15 26 4
1 2 3
2 1 3
4 8 3
3 8 3
8 4 3
8 15 3
26 15 3
4 37 3
4 41 3
14 3 3
4 11 2
13 14 2
4 17 2
17 4 2
15 18 2
15 4 2
14 23 2
23 24 2
24 15 2
3 27 2
15 8 2
14 26 2
26 14 2
11 3 2
37 4 2
41 4 2
27 28 2
28 27 2
3 14 2
1 3 1
3 5 1
5 3 1
3 6 1
6 4 1
3 7 1
7 3 1
8 9 1
9 4 1
4 10 1
10 4 1
11 4 1
4 12 1
12 4 1
4 13 1
4 16 1
16 14 1
14 17 1
17 15 1
15 17 1
17 14 1
18 15 1
18 8 1
8 18 1
18 19 1
19 14 1
14 20 1
20 13 1
14 21 1
21 8 1
8 22 1
22 18 1
18 14 1
14 25 1
25 3 1
3 26 1
26 3 1
27 8 1
28 14 1
14 29 1
29 15 1
15 30 1
30 15 1
14 31 1
31 14 1
26 8 1
4 32 1
32 3 1
3 11 1
4 33 1
33 4 1
8 34 1
34 4 1
4 35 1
35 3 1
3 36 1
36 3 1
37 38 1
38 37 1
37 8 1
3 39 1
39 3 1
3 40 1
40 3 1
28 3 1
3 42 1
42 27 1
4 43 1
43 28 1
28 41 1
41 28 1
4 44 1
44 28 1
27 14 1
41 3 1
3 45 1
45 8 1
15 1 1
