7 14 33
14 7 31
12 13 18
13 12 18
6 13 13
13 6 13
24 2 13
2 24 11
6 7 10
7 6 10
44 11 9
11 44 9
7 11 8
11 7 8
7 2 7
2 7 6
23 11 6
4 7 5
31 4 5
7 35 5
35 7 5
5 4 4
2 6 4
11 23 4
11 24 4
25 26 4
26 27 4
27 26 4
9 37 4
37 10 4
7 13 4
7 37 4
7 29 4
4 5 3
10 11 3
19 7 3
6 2 3
24 11 3
29 7 3
4 31 3
37 9 3
10 37 3
13 7 3
13 39 3
39 13 3
37 7 3
41 24 3
24 41 3
30 25 3
37 43 3
43 37 3
2 3 2
3 4 2
4 3 2
7 3 2
11 10 2
14 15 2
15 7 2
13 16 2
26 25 2
25 27 2
27 25 2
7 4 2
30 7 2
32 29 2
29 32 2
11 37 2
7 19 2
4 14 2
14 4 2
1 2 1
3 2 1
3 7 1
3 8 1
8 5 1
3 9 1
9 10 1
10 12 1
12 7 1
7 12 1
16 17 1
17 13 1
13 18 1
18 13 1
16 13 1
13 19 1
6 20 1
20 21 1
21 6 1
6 22 1
22 6 1
6 23 1
11 25 1
25 21 1
21 13 1
13 28 1
28 29 1
4 30 1
7 31 1
7 26 1
26 21 1
21 26 1
26 32 1
32 7 1
7 33 1
33 2 1
2 34 1
34 31 1
6 35 1
35 6 1
6 31 1
31 32 1
32 36 1
36 28 1
28 9 1
37 38 1
38 24 1
39 7 1
7 39 1
13 40 1
40 13 1
13 11 1
11 9 1
9 11 1
37 6 1
7 41 1
41 4 1
12 42 1
42 43 1
43 30 1
25 30 1
26 29 1
29 30 1
26 7 1
37 44 1
44 37 1
37 45 1
45 13 1
13 30 1
29 46 1
46 7 1
29 44 1
44 23 1
2 13 1
