2 3 20
3 2 20
2 5 15
5 2 15
11 2 14
2 16 14
16 2 13
4 5 11
2 11 11
3 19 10
5 4 9
19 3 9
4 2 8
2 9 8
3 15 8
12 34 8
14 15 7
15 14 7
3 21 7
26 10 7
10 26 7
34 12 7
2 4 6
15 3 6
21 3 6
9 10 5
10 2 5
2 10 5
9 5 5
12 2 5
2 12 5
9 4 5
9 2 5
2 39 5
5 9 4
18 3 4
25 15 4
15 25 4
10 9 4
39 2 4
4 9 3
3 18 3
5 27 3
3 29 3
29 3 3
15 18 3
21 11 3
4 11 2
5 12 2
16 11 2
27 5 2
27 4 2
18 15 2
31 32 2
2 21 2
11 21 2
9 7 2
1 2 1
5 6 1
6 7 1
7 8 1
8 9 1
11 4 1
12 9 1
2 13 1
13 5 1
5 14 1
15 16 1
4 16 1
16 17 1
17 2 1
9 11 1
2 15 1
18 19 1
19 20 1
20 18 1
15 19 1
19 5 1
21 17 1
17 9 1
9 16 1
16 22 1
22 16 1
16 23 1
23 2 1
11 5 1
5 24 1
24 4 1
2 25 1
25 2 1
5 26 1
10 4 1
4 27 1
26 3 1
3 28 1
28 3 1
19 18 1
18 30 1
30 2 1
2 31 1
32 31 1
32 3 1
11 33 1
33 21 1
21 2 1
21 5 1
34 9 1
2 35 1
35 36 1
36 30 1
30 37 1
37 3 1
3 4 1
9 3 1
3 9 1
7 9 1
7 3 1
14 38 1
38 2 1
39 40 1
40 41 1
41 35 1
35 41 1
41 36 1
