13 15 45
15 13 45
15 26 26
26 15 25
15 4 20
4 15 19
15 22 18
22 15 17
13 12 14
12 13 13
18 4 9
4 18 8
12 38 8
21 15 7
15 21 7
42 15 7
26 27 6
27 15 6
26 12 6
38 12 6
15 42 6
12 26 5
7 8 4
11 13 4
15 27 4
12 11 3
27 26 3
3 4 2
4 3 2
5 7 2
8 9 2
9 7 2
11 12 2
13 11 2
12 15 2
34 35 2
35 36 2
38 30 2
30 12 2
41 26 2
26 41 2
1 2 1
2 3 1
3 5 1
5 4 1
4 5 1
5 6 1
6 5 1
8 5 1
7 5 1
5 10 1
10 7 1
8 11 1
13 14 1
14 13 1
13 16 1
16 13 1
13 17 1
17 13 1
4 19 1
19 18 1
4 20 1
20 4 1
13 21 1
21 13 1
22 23 1
23 15 1
15 24 1
24 25 1
25 26 1
27 28 1
28 27 1
27 29 1
29 26 1
26 30 1
30 26 1
26 13 1
13 26 1
13 31 1
31 32 1
32 13 1
13 33 1
33 26 1
15 34 1
36 34 1
36 35 1
35 12 1
15 37 1
37 26 1
15 12 1
12 39 1
39 38 1
38 15 1
26 40 1
40 41 1
41 42 1
15 43 1
43 15 1
4 26 1
26 4 1
