9 56 34
54 9 32
9 54 31
56 9 30
9 71 21
80 9 19
9 17 18
71 9 18
9 80 18
17 9 16
125 9 12
15 9 11
9 48 11
48 9 11
9 22 10
9 87 10
9 125 9
9 24 8
62 9 8
22 9 8
9 11 7
11 9 7
24 9 7
55 9 7
9 62 7
87 9 7
114 9 7
9 43 6
43 9 6
9 55 6
9 12 5
54 56 5
9 105 5
9 114 5
9 15 4
80 43 4
105 9 4
7 8 3
9 7 3
7 9 3
19 9 3
9 42 3
17 15 3
56 54 3
71 17 3
56 17 3
43 80 3
8 7 2
12 9 2
25 9 2
43 17 2
42 9 2
54 17 2
15 54 2
17 54 2
12 15 2
54 62 2
62 54 2
9 79 2
79 9 2
17 71 2
9 96 2
96 114 2
80 121 2
121 122 2
9 124 2
124 9 2
9 129 2
71 55 2
1 2 1
2 3 1
3 4 1
4 5 1
5 6 1
6 7 1
8 9 1
9 10 1
10 9 1
9 13 1
13 9 1
9 14 1
14 15 1
9 16 1
16 17 1
17 18 1
18 19 1
19 20 1
20 9 1
9 21 1
21 9 1
17 22 1
22 23 1
23 9 1
22 17 1
17 7 1
9 25 1
9 26 1
26 27 1
27 28 1
28 29 1
29 30 1
30 17 1
17 27 1
27 24 1
24 31 1
31 32 1
32 9 1
9 33 1
33 34 1
34 35 1
35 36 1
36 15 1
12 19 1
19 37 1
37 9 1
17 38 1
38 9 1
9 19 1
17 19 1
9 39 1
39 40 1
40 41 1
41 9 1
42 17 1
17 43 1
43 44 1
44 43 1
17 45 1
45 9 1
17 46 1
46 9 1
24 17 1
17 24 1
9 47 1
47 9 1
9 49 1
49 9 1
24 50 1
50 9 1
9 51 1
51 9 1
9 52 1
52 9 1
9 53 1
53 54 1
54 55 1
9 57 1
57 12 1
12 17 1
56 58 1
58 59 1
59 17 1
56 12 1
54 60 1
60 54 1
54 61 1
61 54 1
54 11 1
11 54 1
54 43 1
43 54 1
56 63 1
63 9 1
17 64 1
64 9 1
9 65 1
65 9 1
9 66 1
66 9 1
17 67 1
67 9 1
17 68 1
68 17 1
9 69 1
69 17 1
9 70 1
70 9 1
71 72 1
72 9 1
17 73 1
73 74 1
74 75 1
75 76 1
76 9 1
9 77 1
77 78 1
78 9 1
56 80 1
80 81 1
81 80 1
9 81 1
81 9 1
80 14 1
14 80 1
9 82 1
82 80 1
80 83 1
83 54 1
54 15 1
9 40 1
40 15 1
15 84 1
84 62 1
9 85 1
85 9 1
9 86 1
86 17 1
87 17 1
87 88 1
88 9 1
9 89 1
89 56 1
56 45 1
45 56 1
71 90 1
90 71 1
71 91 1
91 71 1
9 92 1
92 17 1
17 85 1
85 93 1
93 9 1
9 94 1
94 7 1
7 17 1
9 95 1
95 94 1
94 9 1
96 9 1
17 97 1
97 96 1
96 98 1
98 9 1
87 54 1
54 99 1
99 54 1
55 56 1
17 100 1
100 101 1
101 102 1
102 103 1
103 104 1
104 101 1
101 9 1
105 106 1
106 9 1
12 105 1
105 15 1
9 107 1
107 9 1
17 108 1
108 109 1
109 9 1
9 110 1
110 9 1
56 111 1
111 9 1
9 112 1
112 96 1
96 113 1
113 114 1
9 115 1
115 114 1
114 116 1
116 9 1
114 117 1
117 9 1
9 116 1
116 96 1
12 62 1
62 80 1
80 118 1
118 80 1
80 119 1
119 9 1
9 120 1
120 80 1
122 80 1
122 121 1
121 9 1
9 121 1
121 80 1
80 15 1
15 80 1
9 123 1
123 9 1
55 12 1
15 22 1
22 55 1
9 126 1
126 9 1
9 127 1
127 9 1
125 22 1
22 128 1
128 125 1
129 125 1
9 130 1
130 125 1
22 125 1
9 131 1
131 9 1
7 25 1
9 72 1
72 15 1
9 132 1
132 72 1
72 19 1
71 22 1
22 71 1
55 133 1
133 9 1
9 134 1
134 9 1
129 71 1
9 135 1
135 9 1
