4 5 53
5 4 45
5 22 18
22 5 18
2 3 6
6 4 6
23 4 6
3 2 5
4 6 4
4 23 4
7 6 3
5 6 3
5 14 3
4 14 3
5 24 3
24 4 3
6 5 2
6 10 2
14 6 2
13 15 2
14 5 2
5 15 2
22 15 2
15 4 2
5 23 2
6 28 2
28 6 2
1 2 1
3 4 1
6 7 1
6 8 1
8 6 1
6 9 1
9 6 1
10 6 1
10 7 1
6 11 1
11 5 1
6 12 1
12 6 1
6 13 1
13 4 1
4 13 1
15 16 1
16 14 1
6 17 1
17 15 1
15 14 1
14 18 1
18 7 1
14 19 1
19 4 1
14 20 1
20 4 1
14 13 1
15 5 1
15 21 1
21 4 1
4 22 1
15 22 1
23 15 1
15 23 1
4 24 1
24 5 1
4 25 1
25 6 1
6 26 1
26 6 1
6 27 1
27 6 1
4 29 1
29 4 1
5 30 1
30 4 1
