2 1 58
1 2 52
1 25 19
25 1 19
9 2 6
5 6 5
6 5 5
26 2 5
1 9 3
10 11 3
11 9 3
9 1 3
9 13 3
1 18 3
2 18 3
2 26 3
27 2 3
29 9 3
8 9 2
9 10 2
13 9 2
17 20 2
18 22 2
25 20 2
20 2 2
1 26 2
1 27 2
9 29 2
1 3 1
3 1 1
1 4 1
4 1 1
2 5 1
5 2 1
2 7 1
7 8 1
2 11 1
11 12 1
12 9 1
10 13 1
13 8 1
9 14 1
14 9 1
1 10 1
11 15 1
15 16 1
16 9 1
9 17 1
17 2 1
18 19 1
19 20 1
20 17 1
20 21 1
21 18 1
18 9 1
13 10 1
18 2 1
22 18 1
18 23 1
23 1 1
22 1 1
18 17 1
20 1 1
2 20 1
20 24 1
24 2 1
18 1 1
2 25 1
20 25 1
26 20 1
20 26 1
1 20 1
2 27 1
27 1 1
1 28 1
28 27 1
2 9 1
2 10 1
10 9 1
9 11 1
2 29 1
1 30 1
30 2 1
