3 14 164
14 3 162
7 3 65
3 7 62
3 6 54
6 3 48
2 3 30
3 2 25
8 3 22
3 8 20
32 3 20
3 1 19
40 3 19
3 9 18
29 3 18
3 32 18
1 3 17
9 3 17
3 29 17
3 40 16
35 3 14
1 2 12
4 3 12
2 1 11
3 4 11
3 35 11
3 27 9
2 4 8
6 2 8
3 33 8
33 3 8
14 38 8
38 14 8
3 13 7
27 3 7
13 3 6
7 14 6
3 30 6
2 6 5
4 2 5
6 14 5
14 7 5
6 34 5
32 35 5
3 41 5
7 12 4
12 7 4
4 1 4
14 8 4
34 6 4
9 32 4
37 35 4
35 37 4
38 3 4
1 6 3
6 4 3
3 12 3
25 7 3
14 6 3
1 14 3
30 3 3
7 29 3
29 7 3
7 31 3
14 32 3
32 9 3
35 14 3
14 35 3
3 38 3
41 3 3
3 45 3
45 3 3
6 1 2
6 7 2
12 3 2
16 17 2
9 2 2
2 9 2
1 4 2
8 14 2
8 7 2
7 8 2
22 2 2
27 7 2
3 25 2
30 14 2
31 3 2
2 14 2
14 2 2
9 6 2
14 9 2
6 32 2
35 32 2
12 14 2
3 42 2
14 40 2
43 3 2
3 43 2
13 2 2
41 40 2
40 6 2
14 41 2
41 14 2
3 5 1
5 6 1
6 5 1
5 3 1
6 9 1
3 10 1
10 3 1
3 11 1
11 7 1
3 15 1
15 3 1
3 16 1
17 16 1
17 3 1
3 18 1
18 9 1
9 7 1
3 19 1
19 3 1
4 6 1
14 20 1
20 21 1
21 14 1
8 6 1
3 22 1
2 23 1
23 24 1
24 3 1
7 25 1
7 26 1
26 1 1
1 26 1
26 7 1
7 2 1
2 26 1
26 2 1
2 8 1
6 22 1
2 27 1
27 14 1
7 28 1
28 3 1
14 22 1
22 3 1
14 4 1
14 1 1
4 7 1
14 29 1
7 32 1
7 6 1
14 12 1
34 2 1
4 35 1
32 6 1
32 14 1
32 2 1
35 4 1
4 32 1
35 9 1
9 35 1
35 2 1
2 35 1
35 1 1
1 35 1
2 32 1
3 36 1
36 37 1
37 3 1
32 7 1
7 38 1
1 39 1
39 2 1
14 31 1
31 40 1
40 2 1
31 7 1
42 3 1
40 14 1
40 7 1
7 43 1
43 13 1
2 40 1
30 40 1
40 1 1
1 40 1
6 40 1
42 7 1
4 14 1
14 44 1
44 6 1
9 8 1
