5 6 55
6 5 55
3 4 33
4 3 32
3 6 30
6 3 29
21 6 19
20 14 18
6 21 17
14 6 16
14 20 16
11 6 15
8 5 14
6 11 14
5 8 13
6 14 13
20 21 13
10 11 12
11 10 12
6 4 12
21 14 12
4 6 11
14 5 11
14 21 11
21 20 11
9 10 10
6 8 10
6 20 10
18 4 10
7 6 9
7 8 9
10 9 9
8 10 9
8 11 9
10 8 9
14 18 9
8 6 9
5 14 9
6 7 8
11 8 8
11 9 8
9 11 8
18 14 8
4 18 8
20 6 7
8 7 6
8 9 6
9 8 6
6 16 6
16 6 6
5 21 6
21 5 6
7 11 5
8 3 5
6 17 5
18 6 5
11 5 5
5 11 5
8 21 5
20 8 5
8 20 5
4 21 5
21 4 5
11 7 4
17 6 4
5 3 4
18 7 4
7 25 4
25 7 4
21 8 4
3 5 3
7 9 3
9 7 3
3 8 3
6 18 3
14 11 3
11 14 3
25 18 3
7 18 3
5 7 2
14 7 2
6 24 2
4 25 2
6 19 2
19 6 2
34 11 2
5 10 2
5 20 2
1 2 1
2 3 1
10 5 1
3 7 1
3 9 1
10 7 1
7 10 1
11 12 1
12 9 1
9 12 1
12 13 1
13 14 1
14 12 1
12 15 1
15 12 1
12 5 1
6 9 1
10 18 1
18 19 1
19 14 1
5 18 1
18 5 1
8 18 1
11 22 1
22 14 1
14 23 1
23 9 1
9 23 1
23 11 1
11 23 1
23 22 1
22 9 1
9 14 1
7 14 1
9 5 1
24 6 1
24 16 1
16 18 1
18 25 1
18 26 1
26 18 1
6 27 1
27 20 1
17 14 1
3 14 1
4 28 1
28 6 1
20 29 1
29 21 1
21 3 1
5 30 1
30 9 1
9 31 1
31 8 1
10 20 1
21 11 1
11 32 1
32 9 1
9 6 1
6 33 1
33 6 1
6 34 1
11 34 1
10 6 1
6 10 1
4 5 1
5 35 1
35 8 1
6 35 1
35 5 1
20 5 1
20 3 1
3 36 1
36 3 1
3 21 1
6 37 1
