1 2 65
2 1 63
11 12 45
12 11 45
18 11 36
11 18 36
20 17 26
22 12 24
12 22 24
22 23 23
23 22 23
17 20 23
11 17 16
17 11 15
11 20 14
20 11 13
11 2 13
2 11 11
21 20 11
23 11 11
20 18 10
17 18 9
11 22 9
22 11 9
20 21 9
18 22 8
11 23 8
22 18 7
33 17 6
21 12 6
23 12 5
18 23 5
12 23 5
18 20 5
17 33 5
12 21 5
23 18 4
7 6 3
12 20 3
18 12 3
22 17 3
2 3 2
6 7 2
12 13 2
19 20 2
20 19 2
21 11 2
11 21 2
12 18 2
11 26 2
26 11 2
20 31 2
18 17 2
35 18 2
38 11 2
23 20 2
20 23 2
52 23 2
23 52 2
17 23 2
3 1 1
1 4 1
4 1 1
3 2 1
2 5 1
5 6 1
6 1 1
1 7 1
6 8 1
8 9 1
9 10 1
10 11 1
13 11 1
11 14 1
14 11 1
11 15 1
15 16 1
16 17 1
18 19 1
19 21 1
23 24 1
24 22 1
18 25 1
25 17 1
2 27 1
27 28 1
28 29 1
29 12 1
12 30 1
30 12 1
20 12 1
31 21 1
11 32 1
32 21 1
21 17 1
18 34 1
34 17 1
31 20 1
18 21 1
18 35 1
18 36 1
36 11 1
11 35 1
35 11 1
2 37 1
37 2 1
18 2 1
2 35 1
35 2 1
2 20 1
20 35 1
11 38 1
20 38 1
38 20 1
18 38 1
11 39 1
39 11 1
2 40 1
40 11 1
23 41 1
41 23 1
18 42 1
42 18 1
18 43 1
43 20 1
20 44 1
44 20 1
22 33 1
17 45 1
45 20 1
18 24 1
24 20 1
18 46 1
46 22 1
17 47 1
47 23 1
17 22 1
20 48 1
48 18 1
18 49 1
49 18 1
18 50 1
50 11 1
22 51 1
51 17 1
11 52 1
52 53 1
53 23 1
23 54 1
54 23 1
11 55 1
55 23 1
12 56 1
56 17 1
17 57 1
57 20 1
23 58 1
58 33 1
33 20 1
17 59 1
59 23 1
23 60 1
60 11 1
11 61 1
61 11 1
11 62 1
62 13 1
13 23 1
23 13 1
13 22 1
11 13 1
13 63 1
63 11 1
11 64 1
64 12 1
12 65 1
65 11 1
13 12 1
12 41 1
41 12 1
11 66 1
66 12 1
22 67 1
67 22 1
23 68 1
68 23 1
