41 8 29
8 41 27
58 61 21
61 58 20
13 8 18
54 8 17
8 13 16
8 54 16
12 8 14
8 12 12
39 8 12
73 8 12
8 39 11
8 73 11
8 11 10
11 8 10
22 8 10
26 8 8
8 22 6
8 24 6
24 8 5
8 26 5
13 33 5
33 13 5
58 39 5
35 13 4
45 8 4
8 68 4
69 8 4
8 9 3
9 8 3
8 45 3
8 46 3
48 8 3
39 58 3
62 63 3
8 69 3
8 79 3
79 26 3
1 8 2
13 35 2
8 48 2
24 51 2
55 56 2
56 55 2
55 57 2
57 55 2
60 54 2
54 58 2
63 62 2
39 61 2
61 44 2
44 58 2
68 41 2
8 43 2
71 43 2
74 31 2
8 33 2
78 79 2
78 26 2
26 79 2
79 78 2
79 8 2
8 85 2
85 24 2
24 85 2
1 2 1
2 1 1
1 3 1
3 1 1
1 4 1
4 5 1
5 1 1
1 6 1
6 1 1
1 7 1
7 1 1
9 10 1
10 9 1
9 11 1
11 9 1
8 1 1
8 14 1
14 13 1
8 15 1
15 16 1
16 13 1
8 17 1
17 8 1
8 18 1
18 13 1
13 19 1
19 13 1
8 20 1
20 21 1
21 8 1
8 23 1
23 22 1
13 25 1
25 13 1
13 26 1
26 27 1
27 8 1
8 28 1
28 8 1
8 29 1
29 30 1
30 31 1
31 32 1
32 13 1
13 34 1
34 35 1
33 35 1
13 30 1
30 33 1
35 8 1
8 36 1
36 37 1
37 38 1
38 8 1
8 40 1
40 39 1
8 37 1
37 8 1
8 42 1
42 43 1
43 44 1
44 42 1
42 11 1
46 45 1
46 41 1
41 47 1
47 8 1
41 48 1
46 8 1
11 47 1
47 41 1
41 49 1
49 8 1
8 50 1
50 22 1
8 51 1
51 22 1
51 52 1
52 8 1
51 24 1
24 22 1
22 51 1
51 53 1
53 51 1
51 8 1
54 55 1
55 54 1
54 39 1
39 59 1
59 60 1
58 60 1
60 61 1
61 60 1
61 8 1
8 62 1
63 64 1
64 62 1
62 44 1
44 61 1
61 39 1
39 65 1
65 58 1
58 44 1
44 54 1
8 66 1
66 8 1
8 67 1
67 8 1
68 8 1
68 69 1
43 6 1
6 70 1
70 71 1
43 24 1
24 71 1
71 72 1
72 13 1
73 35 1
13 74 1
31 73 1
73 74 1
31 8 1
33 63 1
63 8 1
8 75 1
75 73 1
33 8 1
8 76 1
76 77 1
77 78 1
79 73 1
73 78 1
8 80 1
80 79 1
8 81 1
81 78 1
78 82 1
82 8 1
8 78 1
78 73 1
8 83 1
83 84 1
84 24 1
24 44 1
44 13 1
13 24 1
85 86 1
86 8 1
85 87 1
87 85 1
85 44 1
44 88 1
88 89 1
89 90 1
90 91 1
91 13 1
13 90 1
90 43 1
43 92 1
92 43 1
43 22 1
22 43 1
43 93 1
93 12 1
13 94 1
94 13 1
13 95 1
95 41 1
8 96 1
96 8 1
43 71 1
43 97 1
97 24 1
24 12 1
8 98 1
98 12 1
12 22 1
41 54 1
8 99 1
99 100 1
100 101 1
101 8 1
8 102 1
102 103 1
103 8 1
8 104 1
104 105 1
105 8 1
8 106 1
106 41 1
8 107 1
107 108 1
