4 3 143
3 4 134
3 12 44
12 3 41
12 4 19
17 3 16
4 48 16
48 4 14
3 48 13
48 3 13
3 17 12
4 17 12
4 12 11
36 3 11
32 4 10
3 36 10
17 4 9
23 3 9
3 23 8
4 28 8
28 4 8
4 32 6
3 32 6
2 3 4
4 15 4
4 25 4
25 4 4
3 38 4
53 3 4
60 22 4
3 2 3
7 3 3
3 7 3
9 4 3
4 13 3
15 4 3
32 3 3
38 3 3
4 50 3
3 53 3
3 60 3
32 61 3
4 5 2
5 4 2
3 9 2
4 9 2
13 12 2
15 3 2
22 4 2
3 29 2
35 4 2
4 35 2
37 4 2
50 4 2
50 3 2
3 50 2
52 44 2
17 60 2
22 60 2
60 4 2
61 32 2
1 2 1
4 6 1
6 5 1
5 7 1
7 4 1
3 8 1
8 3 1
9 3 1
4 10 1
10 4 1
4 11 1
11 12 1
13 14 1
14 12 1
3 15 1
3 16 1
16 4 1
17 18 1
18 17 1
4 19 1
19 4 1
4 20 1
20 3 1
3 21 1
21 22 1
4 22 1
22 23 1
3 24 1
24 25 1
25 24 1
24 26 1
26 12 1
4 27 1
27 3 1
28 3 1
3 28 1
29 4 1
29 3 1
4 30 1
30 3 1
17 31 1
31 17 1
17 32 1
32 17 1
3 33 1
33 32 1
32 34 1
34 4 1
3 35 1
35 36 1
36 37 1
4 37 1
4 36 1
38 39 1
39 38 1
38 40 1
40 36 1
36 4 1
3 41 1
41 3 1
3 42 1
42 4 1
3 43 1
43 44 1
44 4 1
3 45 1
45 4 1
4 45 1
45 46 1
46 4 1
4 47 1
47 4 1
3 49 1
49 3 1
50 51 1
51 50 1
50 52 1
44 52 1
44 53 1
53 54 1
54 55 1
55 53 1
4 56 1
56 57 1
57 4 1
3 58 1
58 59 1
59 4 1
48 44 1
44 48 1
48 17 1
4 60 1
60 3 1
60 17 1
22 17 1
4 40 1
40 32 1
61 4 1
48 32 1
3 62 1
62 3 1
3 63 1
