5 2 161
2 5 161
46 5 30
11 2 29
5 46 28
2 6 27
6 2 25
2 11 24
2 46 13
5 11 12
11 5 8
46 2 8
6 5 7
5 6 7
5 25 6
25 5 6
2 4 5
5 9 5
9 5 5
28 5 5
1 2 4
4 2 4
2 9 4
9 2 4
14 2 4
24 5 4
5 28 4
28 2 4
5 31 4
31 5 4
2 64 4
64 2 4
7 2 3
10 5 3
16 14 3
2 28 3
5 42 3
42 5 3
51 2 3
2 51 3
5 48 3
2 62 3
62 24 3
62 2 3
62 11 3
28 63 3
63 28 3
2 1 2
2 3 2
3 2 2
2 7 2
7 5 2
5 7 2
5 10 2
2 16 2
5 21 2
29 28 2
2 32 2
32 2 2
5 44 2
45 5 2
47 5 2
5 47 2
47 2 2
2 47 2
51 52 2
48 5 2
46 11 2
5 62 2
11 24 2
11 62 2
24 62 2
46 28 2
28 46 2
4 5 1
6 7 1
5 8 1
8 5 1
11 12 1
12 11 1
2 13 1
13 2 1
2 14 1
2 15 1
15 14 1
16 17 1
17 18 1
18 16 1
14 16 1
16 19 1
19 16 1
2 20 1
20 5 1
21 5 1
21 22 1
22 23 1
23 24 1
2 25 1
25 2 1
2 10 1
5 26 1
26 2 1
11 27 1
27 11 1
11 28 1
28 11 1
28 29 1
2 29 1
2 30 1
30 28 1
28 30 1
30 5 1
32 5 1
5 32 1
2 33 1
33 1 1
5 34 1
34 2 1
2 34 1
34 5 1
5 35 1
35 36 1
36 5 1
5 37 1
37 5 1
5 38 1
38 5 1
2 39 1
39 20 1
20 40 1
40 5 1
5 41 1
41 5 1
5 43 1
43 2 1
44 5 1
44 45 1
5 45 1
6 47 1
47 43 1
43 47 1
47 48 1
48 49 1
49 48 1
48 50 1
50 51 1
52 53 1
53 51 1
52 51 1
51 54 1
54 5 1
5 51 1
51 5 1
48 55 1
55 2 1
46 56 1
56 2 1
5 57 1
57 58 1
58 46 1
46 59 1
59 5 1
5 60 1
60 2 1
5 61 1
61 5 1
46 49 1
49 46 1
63 2 1
64 28 1
5 64 1
5 63 1
2 65 1
65 2 1
