45 94 34
26 11 32
11 45 32
94 45 32
45 11 30
11 26 29
11 40 12
40 11 12
21 11 11
11 21 10
43 11 10
11 43 9
28 45 9
45 28 9
11 41 8
60 11 8
11 60 8
41 11 7
38 11 6
52 11 6
11 91 6
11 52 5
68 21 5
21 68 5
91 11 5
3 4 4
11 3 4
27 28 4
11 38 4
4 3 3
8 12 3
3 11 3
24 25 3
11 27 3
11 33 3
50 45 3
55 11 3
11 56 3
24 45 3
3 8 2
8 3 2
11 8 2
8 13 2
8 15 2
28 26 2
11 29 2
34 11 2
11 34 2
3 50 2
50 24 2
56 11 2
50 60 2
64 11 2
60 41 2
66 11 2
45 21 2
74 45 2
45 75 2
28 27 2
88 45 2
45 96 2
45 99 2
99 45 2
1 2 1
2 3 1
3 5 1
5 6 1
6 7 1
7 6 1
6 3 1
8 9 1
9 10 1
10 11 1
11 2 1
2 11 1
4 8 1
8 5 1
5 8 1
12 9 1
9 8 1
13 14 1
14 11 1
11 6 1
6 8 1
15 16 1
16 17 1
17 8 1
8 18 1
18 8 1
12 8 1
12 11 1
13 8 1
15 3 1
3 19 1
19 15 1
15 20 1
20 3 1
3 21 1
11 22 1
22 23 1
23 24 1
25 24 1
24 11 1
29 26 1
28 11 1
11 16 1
16 11 1
11 30 1
30 31 1
31 3 1
3 32 1
32 3 1
33 34 1
34 35 1
35 11 1
11 36 1
36 11 1
33 11 1
33 37 1
37 38 1
3 38 1
11 39 1
39 11 1
29 11 1
11 42 1
42 11 1
41 43 1
43 44 1
44 28 1
45 46 1
46 47 1
47 45 1
45 48 1
48 45 1
45 29 1
29 45 1
45 49 1
49 50 1
50 3 1
24 29 1
29 24 1
24 50 1
45 50 1
45 7 1
7 51 1
51 52 1
11 53 1
53 11 1
45 54 1
54 11 1
11 55 1
11 57 1
57 55 1
56 55 1
11 47 1
47 55 1
55 58 1
58 59 1
59 26 1
26 50 1
11 61 1
61 62 1
62 3 1
3 24 1
45 24 1
11 63 1
63 29 1
29 61 1
61 11 1
26 64 1
41 60 1
41 50 1
60 7 1
7 29 1
29 65 1
65 25 1
25 66 1
11 24 1
45 64 1
45 67 1
67 11 1
11 68 1
68 45 1
21 62 1
62 31 1
31 45 1
45 69 1
69 11 1
11 70 1
70 45 1
45 71 1
71 72 1
72 45 1
45 73 1
73 74 1
45 74 1
75 76 1
76 47 1
47 77 1
77 75 1
75 11 1
11 32 1
32 45 1
45 78 1
78 24 1
24 7 1
7 22 1
22 60 1
60 79 1
79 48 1
48 50 1
45 80 1
80 45 1
45 22 1
22 81 1
81 82 1
82 24 1
25 83 1
83 84 1
84 83 1
83 24 1
25 26 1
11 85 1
85 86 1
86 26 1
26 3 1
3 26 1
26 28 1
27 11 1
11 87 1
87 88 1
45 89 1
89 11 1
28 63 1
63 50 1
24 90 1
90 2 1
2 16 1
16 3 1
50 68 1
68 91 1
91 25 1
25 11 1
91 66 1
3 43 1
11 92 1
92 93 1
93 94 1
45 95 1
95 94 1
94 80 1
80 94 1
96 97 1
97 45 1
96 45 1
21 94 1
94 98 1
98 45 1
94 100 1
100 45 1
94 101 1
101 45 1
94 102 1
102 94 1
94 88 1
94 103 1
103 45 1
75 94 1
94 104 1
104 45 1
45 104 1
104 105 1
105 106 1
106 107 1
107 104 1
104 61 1
61 29 1
29 108 1
108 29 1
