3 4 32
4 3 32
4 5 15
5 6 13
5 4 13
6 5 10
6 4 10
3 5 9
4 6 8
5 3 7
4 16 7
16 4 6
8 5 5
29 31 5
31 29 5
29 33 5
33 29 5
5 8 4
5 7 3
9 5 3
11 12 3
5 12 3
16 5 3
7 22 3
7 5 2
5 10 2
5 11 2
11 5 2
15 9 2
5 16 2
18 6 2
6 16 2
16 6 2
22 5 2
22 3 2
12 11 2
12 8 2
10 4 2
22 7 2
1 2 1
2 3 1
5 9 1
10 5 1
4 11 1
12 4 1
4 12 1
12 13 1
13 5 1
5 14 1
14 4 1
4 8 1
12 9 1
9 15 1
7 9 1
10 8 1
8 4 1
5 17 1
17 5 1
6 18 1
8 19 1
19 11 1
11 3 1
4 18 1
4 20 1
20 4 1
12 21 1
21 3 1
6 22 1
22 12 1
12 22 1
5 23 1
23 24 1
24 25 1
25 18 1
18 22 1
22 26 1
26 23 1
23 16 1
4 27 1
27 4 1
16 22 1
3 27 1
27 5 1
5 15 1
9 28 1
28 12 1
11 22 1
22 11 1
8 12 1
12 5 1
6 3 1
3 10 1
5 29 1
29 30 1
30 29 1
29 32 1
32 29 1
31 34 1
34 30 1
30 31 1
29 35 1
35 29 1
29 10 1
3 22 1
3 7 1
