13 14 27
14 13 26
14 16 20
16 14 16
15 14 13
16 13 11
14 15 10
13 16 10
21 16 8
26 16 8
16 21 7
44 13 7
16 26 6
14 26 6
13 15 5
30 31 5
13 44 5
26 14 5
14 20 4
20 14 4
13 21 4
31 30 4
41 21 4
15 13 3
16 17 3
21 13 3
16 22 3
22 16 3
44 14 3
14 54 3
10 11 2
11 1 2
17 16 2
31 26 2
26 31 2
14 21 2
21 15 2
40 26 2
26 41 2
41 26 2
26 40 2
21 41 2
14 44 2
54 14 2
1 2 1
2 1 1
1 3 1
3 4 1
4 5 1
5 6 1
6 7 1
7 8 1
8 1 1
1 9 1
9 1 1
1 10 1
1 12 1
12 10 1
1 13 1
17 18 1
18 13 1
13 19 1
19 14 1
16 23 1
23 13 1
14 24 1
24 13 1
16 25 1
25 26 1
16 27 1
27 16 1
13 28 1
28 16 1
13 29 1
29 13 1
21 30 1
31 32 1
32 31 1
31 16 1
16 33 1
33 16 1
16 34 1
34 14 1
21 35 1
35 14 1
15 21 1
14 36 1
36 16 1
16 37 1
37 16 1
16 38 1
38 16 1
16 39 1
39 14 1
13 26 1
26 13 1
14 40 1
41 40 1
40 41 1
40 42 1
42 26 1
21 14 1
14 43 1
43 15 1
15 44 1
16 45 1
45 13 1
13 46 1
46 44 1
13 41 1
41 16 1
16 47 1
47 21 1
21 48 1
48 36 1
36 14 1
14 31 1
30 26 1
26 30 1
31 14 1
16 49 1
49 14 1
14 50 1
50 14 1
16 48 1
48 14 1
14 51 1
51 44 1
14 37 1
37 13 1
13 52 1
52 41 1
16 40 1
40 16 1
16 53 1
53 14 1
54 55 1
55 41 1
