7 9 62
9 7 60
7 10 38
10 7 33
3 7 27
7 3 24
19 7 22
14 7 21
11 12 20
7 14 20
7 19 19
3 9 18
9 3 17
12 11 17
9 8 16
8 3 15
9 17 14
17 9 14
8 9 12
3 17 11
20 21 10
7 12 9
12 19 9
6 5 8
5 6 8
10 9 8
3 8 8
14 9 8
7 8 7
3 10 7
9 10 7
10 6 7
6 10 7
12 9 7
14 11 7
11 14 7
12 7 7
9 14 7
19 6 7
8 7 6
10 3 6
3 11 6
17 7 6
17 3 6
6 19 6
6 7 5
7 6 5
6 3 5
10 8 5
11 9 5
9 11 5
7 17 5
12 20 5
19 12 5
9 12 5
2 3 4
3 2 4
2 5 4
5 2 4
3 6 4
11 3 4
8 11 4
16 3 4
7 20 4
21 7 4
3 4 4
4 3 4
5 3 3
8 10 3
11 7 3
11 8 3
14 12 3
16 9 3
3 16 3
17 14 3
21 20 3
9 20 3
20 12 3
6 12 3
9 23 3
12 24 3
24 7 3
7 24 3
3 13 3
13 3 3
7 5 2
6 9 2
7 11 2
7 13 2
12 8 2
12 14 2
9 16 2
12 17 2
20 19 2
17 8 2
23 12 2
24 12 2
10 19 2
9 19 2
20 7 2
21 14 2
14 27 2
1 2 1
2 4 1
4 2 1
2 6 1
8 5 1
9 6 1
3 5 1
13 7 1
8 14 1
14 8 1
11 15 1
15 9 1
13 8 1
8 16 1
7 16 1
17 11 1
17 18 1
18 3 1
19 20 1
20 22 1
22 12 1
17 12 1
17 20 1
19 11 1
11 17 1
14 19 1
19 17 1
21 12 1
3 12 1
8 20 1
12 3 1
3 20 1
20 11 1
20 6 1
23 9 1
12 6 1
19 5 1
5 24 1
24 17 1
19 24 1
24 19 1
24 6 1
5 7 1
7 25 1
25 7 1
19 26 1
26 7 1
19 9 1
19 10 1
10 20 1
20 9 1
27 20 1
7 27 1
27 14 1
27 9 1
9 27 1
27 7 1
4 7 1
9 4 1
8 28 1
28 3 1
