16 27 59
19 16 55
27 16 55
16 19 54
15 16 41
16 17 37
17 16 36
16 15 36
16 18 31
19 17 31
12 16 30
16 12 29
18 16 27
17 19 26
16 20 25
8 16 23
20 16 22
16 8 22
12 8 21
20 12 21
12 20 18
8 12 17
15 11 17
11 15 17
19 18 16
36 16 16
18 19 15
16 36 15
21 16 14
18 21 11
18 12 9
28 27 9
16 21 9
17 27 9
27 19 9
27 28 8
32 16 8
11 12 7
21 18 7
18 17 7
21 19 7
35 16 7
4 8 6
12 11 6
19 12 6
27 29 6
29 27 6
16 32 6
15 34 6
34 15 6
19 21 6
17 35 6
27 12 6
8 4 5
17 18 5
16 23 5
23 16 5
33 32 5
16 33 5
12 18 5
12 19 5
16 35 5
19 35 5
27 15 5
20 19 4
8 20 4
12 17 4
20 27 4
20 17 4
17 20 4
32 33 4
33 16 4
35 17 4
15 27 4
12 27 4
35 15 4
15 35 4
20 21 3
18 8 3
12 21 3
18 20 3
27 20 3
27 17 3
27 21 3
20 18 3
35 19 3
21 27 3
27 18 3
21 20 3
40 15 3
3 4 2
9 10 2
12 14 2
16 22 2
22 16 2
26 16 2
8 18 2
17 12 2
23 18 2
20 32 2
36 20 2
17 36 2
17 21 2
19 20 2
15 40 2
16 41 2
18 27 2
45 44 2
1 2 1
2 3 1
4 5 1
5 4 1
4 3 1
3 6 1
6 4 1
4 7 1
7 3 1
3 5 1
5 3 1
4 9 1
10 9 1
9 11 1
11 9 1
10 11 1
12 13 1
13 12 1
14 12 1
14 15 1
16 24 1
24 25 1
25 18 1
18 26 1
16 26 1
8 27 1
17 28 1
29 28 1
28 29 1
18 30 1
30 23 1
16 31 1
31 23 1
32 18 1
18 33 1
33 18 1
15 12 1
21 12 1
35 8 1
12 36 1
20 36 1
20 3 1
3 20 1
16 37 1
37 27 1
27 37 1
37 4 1
16 38 1
38 16 1
19 27 1
36 17 1
17 15 1
21 17 1
27 8 1
21 39 1
39 17 1
17 39 1
39 18 1
8 17 1
35 18 1
19 40 1
41 15 1
15 41 1
41 19 1
41 17 1
16 42 1
42 16 1
12 43 1
43 18 1
19 43 1
43 16 1
8 15 1
19 15 1
16 39 1
39 19 1
16 44 1
44 45 1
44 46 1
46 47 1
47 45 1
44 15 1
15 48 1
48 16 1
