12 3 45
3 12 44
4 5 20
5 4 15
3 4 12
5 3 12
4 10 12
2 11 12
10 4 11
11 2 11
4 3 10
1 3 9
3 11 9
11 3 9
2 1 8
3 1 8
1 2 7
3 5 7
1 12 7
12 4 6
12 1 6
4 12 5
2 12 5
16 2 5
11 5 5
3 2 4
2 16 4
5 11 4
3 7 3
4 9 3
9 4 3
12 11 3
11 12 3
13 11 3
11 13 3
13 3 3
12 2 3
17 9 3
9 10 3
20 5 3
7 4 2
3 8 2
8 3 2
12 13 2
3 13 2
4 11 2
6 4 2
2 3 2
14 12 2
3 15 2
9 17 2
10 17 2
11 4 2
19 3 2
3 19 2
21 20 2
5 20 2
20 21 2
12 22 2
22 12 2
10 9 2
21 4 2
5 6 1
6 5 1
4 7 1
5 7 1
7 3 1
13 12 1
11 6 1
6 12 1
12 6 1
12 7 1
7 2 1
12 14 1
7 14 1
14 3 1
3 14 1
15 3 1
15 16 1
9 5 1
5 9 1
4 17 1
17 4 1
17 3 1
3 18 1
18 19 1
19 2 1
2 5 1
5 2 1
3 17 1
17 11 1
2 20 1
5 21 1
21 3 1
12 10 1
10 1 1
1 21 1
4 21 1
4 6 1
7 12 1
