15 27 36
27 15 35
30 15 25
15 30 23
15 4 21
4 15 19
50 15 14
15 50 12
36 15 11
15 36 11
13 14 10
38 15 10
14 13 9
15 38 9
21 15 7
24 15 7
26 15 7
15 21 6
15 24 6
15 25 6
25 15 6
15 26 6
15 31 6
28 15 5
15 28 4
31 30 4
9 10 3
15 18 3
18 15 3
23 15 3
15 23 3
31 15 3
30 50 3
10 9 2
27 28 2
34 35 2
35 34 2
38 39 2
39 38 2
15 45 2
48 15 2
15 48 2
30 31 2
50 30 2
1 2 1
2 3 1
3 4 1
4 5 1
5 6 1
6 7 1
7 8 1
8 9 1
10 11 1
11 12 1
12 13 1
13 15 1
15 16 1
16 17 1
17 15 1
15 19 1
19 20 1
20 21 1
4 22 1
22 23 1
23 24 1
28 29 1
29 13 1
14 30 1
30 29 1
29 32 1
32 15 1
15 33 1
33 34 1
34 36 1
36 27 1
15 37 1
37 38 1
4 40 1
40 20 1
20 41 1
41 15 1
15 41 1
41 42 1
42 15 1
15 43 1
43 44 1
44 26 1
45 15 1
45 46 1
46 15 1
15 47 1
47 16 1
16 27 1
27 24 1
24 27 1
27 29 1
29 48 1
48 27 1
27 30 1
15 49 1
49 50 1
31 50 1
50 51 1
51 30 1
30 13 1
13 30 1
30 52 1
52 13 1
13 53 1
