3 5 139
5 3 137
3 4 100
4 3 98
6 3 46
3 6 44
3 35 44
35 3 42
6 7 32
7 3 30
7 6 23
3 7 22
6 4 22
4 5 20
4 6 20
18 3 20
5 4 19
5 6 18
22 3 18
3 22 18
3 18 17
3 10 16
10 5 13
10 3 12
17 3 11
3 17 10
6 5 10
7 4 9
4 7 9
5 10 9
5 7 9
4 35 9
35 4 9
7 5 8
35 18 8
18 35 5
5 35 4
23 3 3
34 3 3
3 34 3
35 5 3
3 36 3
3 39 3
35 6 3
7 35 3
9 5 2
13 14 2
3 20 2
20 3 2
5 23 2
5 27 2
29 5 2
36 5 2
3 38 2
38 5 2
39 3 2
5 18 2
22 4 2
4 22 2
6 35 2
3 45 2
1 2 1
2 3 1
4 8 1
8 9 1
5 9 1
9 10 1
10 4 1
3 11 1
11 3 1
3 12 1
12 11 1
11 13 1
14 15 1
15 3 1
3 16 1
16 3 1
18 17 1
3 19 1
19 3 1
3 21 1
21 14 1
14 13 1
14 22 1
22 5 1
23 5 1
3 23 1
3 24 1
24 7 1
3 25 1
25 5 1
5 26 1
26 5 1
27 28 1
28 5 1
27 29 1
5 29 1
3 30 1
30 5 1
3 31 1
31 3 1
5 32 1
32 33 1
33 3 1
5 34 1
34 5 1
5 28 1
28 3 1
36 3 1
5 37 1
37 3 1
18 5 1
39 6 1
35 40 1
40 6 1
22 6 1
6 22 1
7 41 1
41 7 1
35 7 1
7 42 1
42 3 1
3 43 1
43 6 1
4 44 1
44 5 1
45 3 1
45 6 1
4 46 1
46 4 1
3 47 1
47 3 1
4 23 1
4 48 1
48 3 1
3 9 1
5 49 1
