3 5 83
5 3 77
20 21 30
21 20 26
33 5 24
5 33 22
10 5 14
5 10 12
5 11 12
11 5 11
5 22 8
22 3 7
32 21 7
21 32 7
54 5 7
3 33 7
5 12 6
3 22 6
43 5 6
33 3 6
5 54 6
22 5 5
5 9 5
12 5 5
5 52 5
5 43 5
3 59 5
5 20 4
52 54 4
59 3 4
11 3 3
3 20 3
20 5 3
21 3 3
33 34 3
43 3 3
3 46 3
46 3 3
52 5 3
53 10 3
21 72 3
72 20 3
3 9 2
9 3 2
3 10 2
13 14 2
3 12 2
5 29 2
34 33 2
36 37 2
37 36 2
3 21 2
3 43 2
20 43 2
5 47 2
47 5 2
9 41 2
41 3 2
52 53 2
53 52 2
54 53 2
9 5 2
5 56 2
56 5 2
21 5 2
10 53 2
5 58 2
58 3 2
22 59 2
59 22 2
65 21 2
21 73 2
73 21 2
1 2 1
2 3 1
3 4 1
4 5 1
5 6 1
6 5 1
5 7 1
7 5 1
5 8 1
8 3 1
10 3 1
12 13 1
14 15 1
15 16 1
16 17 1
17 18 1
18 3 1
3 19 1
19 3 1
3 23 1
23 3 1
5 24 1
24 25 1
25 24 1
24 5 1
9 26 1
26 27 1
27 26 1
26 10 1
10 26 1
26 28 1
28 10 1
10 12 1
12 3 1
29 5 1
29 10 1
10 11 1
5 30 1
30 10 1
10 31 1
31 32 1
32 5 1
34 35 1
35 36 1
36 3 1
20 33 1
33 9 1
9 38 1
38 39 1
39 40 1
40 33 1
33 41 1
41 33 1
5 13 1
13 5 1
21 42 1
42 43 1
43 20 1
11 44 1
44 3 1
3 11 1
5 45 1
45 5 1
46 5 1
5 46 1
41 12 1
12 9 1
3 48 1
48 9 1
5 49 1
49 5 1
3 50 1
50 5 1
11 12 1
12 51 1
51 52 1
53 5 1
54 52 1
12 33 1
33 55 1
55 52 1
52 55 1
55 10 1
43 41 1
41 43 1
5 57 1
57 5 1
12 21 1
20 3 1
12 41 1
41 53 1
53 54 1
10 41 1
41 10 1
3 58 1
58 12 1
10 9 1
59 60 1
60 3 1
22 61 1
61 10 1
10 24 1
24 62 1
62 5 1
9 54 1
54 11 1
5 63 1
63 64 1
64 5 1
9 12 1
12 58 1
58 5 1
54 33 1
33 10 1
10 65 1
65 33 1
9 13 1
14 66 1
66 67 1
67 68 1
68 69 1
69 70 1
70 32 1
21 65 1
5 65 1
32 33 1
33 21 1
21 11 1
22 71 1
71 3 1
3 41 1
3 72 1
72 21 1
43 21 1
73 20 1
20 73 1
20 74 1
74 20 1
21 12 1
12 43 1
43 75 1
75 43 1
5 76 1
76 77 1
77 3 1
5 4 1
4 3 1
5 78 1
78 79 1
