6 2 73
2 6 71
2 15 42
15 2 33
2 5 22
5 2 20
4 2 17
2 4 15
15 6 11
2 7 7
7 2 6
6 15 6
6 7 5
7 6 4
2 9 4
30 2 4
9 2 3
2 16 3
16 2 3
2 17 3
2 22 3
22 2 3
2 30 3
4 14 2
6 4 2
4 17 2
17 2 2
29 2 2
33 6 2
38 2 2
1 2 1
2 3 1
3 2 1
7 8 1
8 6 1
9 10 1
10 2 1
5 6 1
6 11 1
11 2 1
2 12 1
12 4 1
6 13 1
13 4 1
14 2 1
6 5 1
17 18 1
18 2 1
2 19 1
19 2 1
17 20 1
20 6 1
15 21 1
21 2 1
15 23 1
23 24 1
24 4 1
4 6 1
14 4 1
4 15 1
17 4 1
2 25 1
25 5 1
5 15 1
15 26 1
26 15 1
15 7 1
7 27 1
27 5 1
5 28 1
28 29 1
6 27 1
27 6 1
6 29 1
6 30 1
15 4 1
4 31 1
31 32 1
32 2 1
15 33 1
6 33 1
33 2 1
2 33 1
5 34 1
34 4 1
4 35 1
35 4 1
15 36 1
36 37 1
37 36 1
36 2 1
2 38 1
5 38 1
7 39 1
