2 3 115
3 2 115
13 12 38
12 13 36
2 15 18
15 2 16
3 26 16
17 2 15
26 3 15
3 17 13
2 17 13
17 3 12
5 3 11
3 5 10
3 28 6
28 3 6
4 5 5
5 4 5
24 12 5
12 24 5
3 32 5
32 3 5
9 10 4
15 17 4
2 27 4
27 2 4
32 33 4
2 4 3
10 9 3
18 19 3
2 12 3
12 2 3
12 18 3
18 12 3
20 12 3
5 22 3
12 23 3
23 13 3
3 25 3
25 3 3
24 3 3
17 15 3
30 31 3
33 32 3
19 18 2
12 20 2
22 5 2
13 23 2
23 12 2
15 3 2
3 12 2
12 26 2
4 3 2
3 4 2
4 26 2
3 20 2
20 3 2
3 24 2
28 26 2
26 28 2
3 30 2
28 2 2
2 28 2
3 34 2
34 3 2
1 2 1
4 6 1
6 4 1
4 7 1
7 4 1
4 8 1
8 9 1
10 11 1
11 12 1
12 14 1
14 2 1
3 15 1
15 16 1
16 3 1
3 18 1
19 12 1
12 3 1
17 19 1
19 3 1
12 21 1
21 3 1
2 5 1
22 13 1
12 17 1
2 24 1
2 20 1
17 4 1
4 12 1
26 4 1
28 12 1
12 28 1
3 29 1
29 3 1
26 12 1
26 15 1
31 3 1
31 12 1
12 31 1
31 30 1
31 17 1
17 12 1
12 32 1
33 3 1
12 19 1
19 2 1
12 5 1
3 11 1
11 35 1
35 2 1
4 17 1
26 36 1
36 2 1
26 2 1
