10 4 34
3 4 33
4 3 32
4 10 31
3 26 23
3 10 19
10 3 19
26 3 17
37 36 12
36 37 11
4 14 8
29 35 8
32 36 8
36 32 8
29 32 8
32 29 8
4 11 7
14 4 7
4 33 7
35 29 7
26 43 7
33 4 6
32 37 6
37 32 6
11 4 5
14 15 5
37 4 5
30 31 4
26 4 4
32 38 4
43 26 4
4 37 4
15 14 3
27 29 3
31 30 3
31 32 3
32 31 3
4 26 3
26 29 3
38 32 3
29 26 3
4 36 3
26 50 3
4 12 2
11 3 2
3 11 2
15 4 2
18 19 2
19 18 2
22 4 2
4 22 2
26 12 2
29 27 2
29 30 2
4 32 2
35 10 2
38 35 2
39 32 2
43 29 2
33 14 2
37 10 2
10 37 2
46 47 2
47 46 2
33 37 2
49 26 2
49 3 2
1 2 1
2 3 1
3 5 1
5 3 1
3 6 1
6 7 1
7 3 1
3 8 1
8 9 1
9 3 1
11 12 1
12 4 1
12 13 1
13 11 1
10 14 1
10 16 1
16 17 1
17 18 1
18 20 1
20 21 1
21 3 1
11 22 1
4 23 1
23 3 1
10 24 1
24 3 1
4 25 1
25 15 1
15 3 1
12 27 1
27 4 1
4 27 1
27 28 1
28 4 1
14 27 1
27 10 1
11 27 1
32 11 1
22 11 1
11 10 1
31 4 1
4 34 1
34 26 1
35 38 1
35 32 1
32 35 1
29 39 1
32 39 1
32 40 1
40 32 1
32 41 1
41 3 1
12 10 1
12 35 1
3 42 1
42 30 1
30 26 1
30 29 1
29 31 1
31 26 1
43 31 1
31 29 1
35 26 1
26 37 1
36 29 1
29 4 1
36 4 1
37 44 1
44 45 1
45 4 1
37 46 1
46 48 1
48 37 1
37 14 1
14 37 1
14 10 1
11 14 1
14 33 1
36 26 1
26 33 1
37 33 1
36 33 1
33 49 1
50 29 1
29 36 1
36 49 1
49 50 1
50 4 1
3 49 1
29 51 1
51 4 1
4 49 1
49 29 1
50 49 1
26 52 1
52 53 1
53 3 1
26 54 1
54 26 1
26 53 1
53 49 1
50 37 1
4 5 1
5 55 1
55 3 1
