4 3 130
3 4 124
9 3 46
3 9 45
9 4 20
3 13 19
13 3 19
4 9 17
4 13 14
13 4 14
3 12 13
17 3 13
3 17 12
4 11 10
12 3 10
18 4 10
4 18 10
16 4 10
11 3 9
4 16 9
3 11 8
11 4 8
3 25 8
12 4 7
3 15 7
15 3 6
25 3 6
3 5 5
25 4 5
5 3 4
15 12 4
18 19 4
4 25 4
15 4 3
4 12 3
19 18 3
4 17 3
16 12 3
26 20 3
4 26 3
12 9 3
9 12 3
11 12 2
12 11 2
4 15 2
12 15 2
9 16 2
16 9 2
3 18 2
17 4 2
20 21 2
20 3 2
12 16 2
26 27 2
25 18 2
18 25 2
1 2 1
2 3 1
5 4 1
3 6 1
6 7 1
7 8 1
8 9 1
9 10 1
10 9 1
13 11 1
11 13 1
12 14 1
14 15 1
11 15 1
19 4 1
4 20 1
21 20 1
21 4 1
3 22 1
22 9 1
3 20 1
4 23 1
23 24 1
24 4 1
25 26 1
27 26 1
20 26 1
27 4 1
20 25 1
25 19 1
19 25 1
18 3 1
4 28 1
28 16 1
4 29 1
29 3 1
13 26 1
26 13 1
3 30 1
30 9 1
3 16 1
25 9 1
12 26 1
26 9 1
9 27 1
27 3 1
26 4 1
3 31 1
31 32 1
32 31 1
31 33 1
