1 7 132
7 1 128
1 32 64
32 1 59
7 32 36
32 7 36
21 1 14
1 21 13
32 21 10
21 22 9
22 21 9
21 32 9
21 23 7
23 21 6
38 39 6
39 38 6
8 5 5
5 8 5
2 1 3
4 5 3
7 21 3
32 38 3
1 2 2
5 4 2
10 5 2
5 1 2
1 5 2
14 15 2
15 1 2
10 1 2
5 21 2
21 7 2
1 28 2
28 1 2
38 1 2
38 32 2
45 32 2
7 45 2
45 7 2
1 3 1
3 4 1
5 6 1
6 7 1
7 8 1
5 9 1
9 10 1
5 10 1
8 7 1
7 11 1
11 12 1
12 5 1
5 7 1
7 5 1
5 13 1
13 5 1
7 14 1
1 15 1
15 14 1
1 16 1
16 1 1
1 17 1
17 18 1
18 1 1
7 10 1
1 10 1
1 19 1
19 1 1
1 20 1
20 21 1
21 5 1
23 13 1
13 21 1
21 24 1
24 21 1
7 2 1
1 25 1
25 1 1
7 26 1
26 7 1
21 27 1
27 1 1
1 29 1
29 1 1
7 30 1
30 7 1
7 31 1
31 1 1
32 33 1
33 7 1
32 34 1
34 1 1
1 35 1
35 1 1
21 36 1
36 7 1
32 37 1
37 7 1
1 38 1
32 40 1
40 32 1
7 41 1
41 7 1
32 31 1
31 7 1
7 42 1
42 32 1
1 18 1
18 7 1
32 43 1
43 1 1
7 36 1
36 32 1
7 44 1
44 45 1
32 45 1
21 46 1
46 7 1
7 47 1
47 45 1
45 1 1
32 48 1
48 49 1
49 1 1
7 50 1
50 22 1
22 7 1
