1 5 54
5 1 52
28 1 28
1 28 26
5 28 22
28 5 21
1 16 8
16 1 7
27 5 5
16 18 4
5 27 4
33 32 4
16 28 4
16 17 3
17 16 3
16 5 3
32 33 3
28 16 3
1 3 2
5 3 2
10 1 2
18 16 2
5 16 2
32 28 2
36 28 2
1 2 1
2 1 1
3 4 1
4 5 1
3 6 1
6 3 1
3 7 1
7 3 1
3 8 1
8 3 1
3 5 1
3 9 1
9 1 1
5 10 1
1 10 1
1 11 1
11 1 1
1 12 1
12 1 1
1 13 1
13 5 1
1 14 1
14 1 1
1 15 1
15 16 1
18 9 1
9 16 1
16 19 1
19 16 1
16 20 1
20 5 1
5 17 1
17 1 1
1 21 1
21 1 1
1 22 1
22 1 1
3 1 1
5 23 1
23 5 1
5 24 1
24 25 1
25 1 1
1 26 1
26 27 1
5 26 1
26 1 1
1 29 1
29 5 1
1 30 1
30 1 1
1 31 1
31 1 1
18 5 1
1 32 1
28 33 1
5 34 1
34 16 1
5 35 1
35 1 1
1 36 1
28 36 1
28 37 1
37 16 1
5 37 1
37 5 1
5 36 1
36 5 1
28 38 1
38 39 1
39 1 1
