4 15 228
15 4 220
24 4 61
4 24 59
38 4 20
4 38 19
15 29 17
29 4 16
15 24 15
29 15 15
15 16 12
4 29 12
16 15 11
15 19 11
23 4 10
4 23 10
24 15 10
19 15 9
19 4 9
60 4 7
4 28 6
4 60 6
4 19 5
28 4 5
14 4 4
16 4 4
26 15 4
24 29 4
15 63 4
66 63 4
4 16 3
4 22 3
15 9 3
15 26 3
63 15 3
4 5 2
5 4 2
11 4 2
4 14 2
4 21 2
21 15 2
22 4 2
22 15 2
9 4 2
15 35 2
4 59 2
63 4 2
63 66 2
71 4 2
1 2 1
2 3 1
3 4 1
4 6 1
6 7 1
7 4 1
4 8 1
8 9 1
9 10 1
10 11 1
4 11 1
4 12 1
12 13 1
13 14 1
15 17 1
17 15 1
4 18 1
18 19 1
15 20 1
20 19 1
15 22 1
15 23 1
4 25 1
25 4 1
4 26 1
15 27 1
27 4 1
15 30 1
30 18 1
18 15 1
4 31 1
31 15 1
15 14 1
14 15 1
15 32 1
32 18 1
18 33 1
33 15 1
24 9 1
9 34 1
34 24 1
35 36 1
36 37 1
37 38 1
29 24 1
15 12 1
12 39 1
39 15 1
24 40 1
40 24 1
24 41 1
41 42 1
42 9 1
9 15 1
9 43 1
43 44 1
44 15 1
4 45 1
45 46 1
46 15 1
4 47 1
47 15 1
23 14 1
15 48 1
48 4 1
15 49 1
49 50 1
50 51 1
51 15 1
15 52 1
52 15 1
4 53 1
53 4 1
24 54 1
54 15 1
9 14 1
14 55 1
55 56 1
56 57 1
57 24 1
15 58 1
58 4 1
59 4 1
59 60 1
60 35 1
35 60 1
28 15 1
29 61 1
61 15 1
21 9 1
9 24 1
4 9 1
4 62 1
62 15 1
4 63 1
63 9 1
9 21 1
15 64 1
64 15 1
4 65 1
65 66 1
63 67 1
67 66 1
4 66 1
66 15 1
15 68 1
68 4 1
35 4 1
4 35 1
35 15 1
15 69 1
69 70 1
70 38 1
38 71 1
4 71 1
4 72 1
72 73 1
73 74 1
74 73 1
73 4 1
4 75 1
75 12 1
