7 1 57
1 7 56
5 1 16
1 5 16
1 8 9
8 1 8
1 53 7
53 1 6
1 94 6
41 42 5
1 23 5
23 1 5
94 1 5
3 1 4
1 3 4
1 34 4
34 7 4
42 41 4
1 41 4
42 1 4
32 7 3
41 1 3
1 42 3
51 50 3
1 14 3
14 1 3
1 66 3
80 81 3
53 7 3
5 7 2
11 1 2
1 21 2
23 26 2
7 32 2
34 1 2
7 34 2
7 47 2
7 48 2
50 51 2
23 59 2
59 23 2
51 1 2
1 64 2
64 1 2
81 80 2
7 88 2
66 1 2
1 2 1
2 3 1
3 4 1
4 3 1
3 5 1
5 3 1
3 6 1
6 1 1
8 9 1
9 1 1
1 9 1
9 10 1
10 1 1
1 11 1
1 12 1
12 1 1
1 13 1
13 14 1
14 15 1
15 16 1
16 17 1
17 5 1
7 18 1
18 1 1
1 19 1
19 1 1
1 20 1
20 1 1
21 11 1
1 22 1
22 23 1
23 24 1
24 23 1
23 25 1
25 23 1
26 23 1
26 27 1
27 28 1
28 27 1
27 3 1
3 29 1
29 7 1
7 30 1
30 7 1
7 31 1
31 7 1
1 32 1
1 33 1
33 7 1
7 21 1
21 1 1
7 35 1
35 23 1
23 21 1
21 36 1
36 5 1
5 37 1
37 1 1
1 37 1
37 38 1
38 1 1
1 39 1
39 40 1
40 5 1
7 41 1
41 43 1
43 42 1
41 21 1
21 41 1
42 44 1
44 1 1
7 45 1
45 7 1
7 8 1
1 4 1
4 23 1
23 8 1
8 46 1
46 8 1
8 7 1
47 7 1
48 7 1
7 49 1
49 50 1
51 52 1
52 8 1
8 53 1
53 23 1
23 54 1
54 55 1
55 23 1
23 56 1
56 57 1
57 58 1
58 23 1
23 60 1
60 1 1
21 61 1
61 1 1
1 51 1
1 62 1
62 1 1
1 63 1
63 1 1
1 65 1
65 1 1
8 51 1
66 67 1
67 51 1
51 68 1
68 51 1
50 69 1
69 70 1
70 71 1
71 51 1
50 72 1
72 73 1
73 74 1
74 75 1
75 74 1
74 76 1
76 68 1
68 77 1
77 78 1
78 61 1
61 79 1
79 76 1
76 80 1
80 82 1
82 80 1
81 83 1
83 84 1
84 85 1
85 86 1
86 5 1
5 87 1
87 1 1
7 53 1
88 53 1
88 1 1
1 89 1
89 1 1
1 90 1
90 1 1
1 91 1
91 92 1
92 1 1
7 93 1
93 1 1
47 1 1
94 95 1
95 96 1
96 97 1
97 1 1
1 98 1
98 99 1
99 7 1
1 100 1
100 101 1
101 1 1
1 102 1
102 1 1
1 103 1
103 1 1
1 104 1
104 1 1
1 105 1
105 1 1
1 106 1
106 1 1
1 107 1
107 1 1
48 108 1
108 7 1
1 109 1
109 1 1
