2 11 17
11 2 16
17 2 15
2 17 13
8 9 9
2 12 9
12 2 9
11 3 9
3 5 9
2 5 8
10 11 8
10 2 8
9 8 7
11 10 7
5 3 6
3 10 6
5 19 6
19 5 6
2 3 5
5 10 5
21 17 5
4 2 4
3 11 4
16 17 4
17 16 4
17 21 4
2 10 4
5 2 3
7 6 3
2 4 3
10 3 3
10 5 3
8 17 3
2 8 3
12 3 3
5 12 3
3 4 2
6 7 2
6 2 2
3 14 2
5 11 2
17 18 2
18 17 2
12 5 2
3 12 2
5 25 2
17 8 2
2 9 2
9 2 2
1 2 1
4 3 1
5 6 1
4 5 1
3 2 1
3 8 1
8 10 1
3 13 1
13 14 1
14 11 1
14 13 1
13 10 1
10 13 1
13 15 1
15 13 1
13 5 1
5 14 1
14 5 1
14 16 1
16 10 1
10 7 1
10 19 1
19 4 1
5 20 1
20 2 1
2 21 1
17 6 1
6 10 1
17 3 1
5 22 1
22 3 1
5 8 1
9 23 1
23 12 1
12 10 1
10 4 1
4 11 1
3 24 1
24 17 1
25 2 1
8 2 1
9 17 1
17 12 1
12 17 1
17 24 1
24 2 1
10 24 1
24 3 1
25 11 1
11 17 1
11 5 1
3 26 1
