3 4 14
4 7 14
16 17 13
4 3 12
7 4 12
17 16 12
4 8 9
12 4 8
8 4 7
4 12 7
4 10 6
10 4 5
18 4 5
4 9 4
4 18 4
22 4 4
9 4 3
10 11 3
18 8 3
8 18 3
4 22 3
4 6 2
6 4 2
7 3 2
11 10 2
10 12 2
3 7 2
14 3 2
3 14 2
9 18 2
4 20 2
17 25 2
25 17 2
1 2 1
2 3 1
3 5 1
5 3 1
9 10 1
11 4 1
12 10 1
12 3 1
7 13 1
13 7 1
7 14 1
3 6 1
6 3 1
14 4 1
4 15 1
15 3 1
3 16 1
17 9 1
18 9 1
8 7 1
7 19 1
19 4 1
20 4 1
20 21 1
21 22 1
22 20 1
20 22 1
22 23 1
23 8 1
8 23 1
23 22 1
8 24 1
24 8 1
7 8 1
8 3 1
18 12 1
8 16 1
16 26 1
26 14 1
14 5 1
5 14 1
14 16 1
16 7 1
7 18 1
